LAMMPS data file via write_data, version 2 Aug 2023, timestep = 10, units = metal

4 atoms
1 atom types

0.008977320169455138 4.146617052430546 xlo xhi
0.008977320214605355 4.146617073285393 ylo yhi
0.008977320248522025 4.146617088951477 zlo zhi
-1.4115897609569516e-08 4.453786023885509e-09 -1.4087230083812887e-08 xy xz yz

Masses

1 196.96655

Atoms # atomic

1 1 4.146617021631331 4.146617044115541 0.008977335089472724 -1 -1 0
2 1 4.146617029795262 2.0777972190202716 2.0777971936344684 -1 0 0
3 1 2.0777971919278886 4.146617035337681 2.0777971926284624 0 -1 0
4 1 2.0777971961806254 2.077797227397667 0.00897732826994425 0 0 0

Velocities

1 0 0 0
2 0 0 0
3 0 0 0
4 0 0 0
