ITEM: TIMESTEP
10
ITEM: NUMBER OF ATOMS
4
ITEM: BOX BOUNDS xy xz yz pp pp pp
8.9773060535575291e-03 4.1466170568843319e+00 -1.4115897609569516e-08
8.9773061273752709e-03 4.1466170732853929e+00 4.4537860238855087e-09
8.9773202485220246e-03 4.1466170889514773e+00 -1.4087230083812887e-08
ITEM: ATOMS id type x y z fx fy fz
1 1 4.14662 4.14662 0.00897734 2.08927e-07 3.64068e-07 -1.49541e-07
2 1 4.14662 2.0778 2.0778 2.12113e-07 -3.64638e-07 1.38421e-07
3 1 2.0778 4.14662 2.0778 -2.11342e-07 3.68997e-07 1.4128e-07
4 1 2.0778 2.0778 0.00897733 -2.09698e-07 -3.68428e-07 -1.3016e-07
