Au
 1.0000000000000000
     4.1376397322610909    0.0000000000000000    0.0000000000000000
    -0.0000000141158976    4.1376397530707871    0.0000000000000000
     0.0000000044537860   -0.0000000140872301    4.1376397687029556
 Au 
   4
Direct
  0.0021696677545668  0.0021696647390959  0.0021696753684014
  0.0021696674836611  0.5021696788736612  0.5021696691313958
  0.5021696760201995  0.0021696643199571  0.5021696688882606
  0.5021696758804293  0.5021696791960140  0.0021696737202326
Cartesian
  0.0000000000000000  0.0000000000000000  0.0000000000000000
  0.0000000000000000  0.0000000000000000  0.0000000000000000
  0.0000000000000000  0.0000000000000000  0.0000000000000000
  0.0000000000000000  0.0000000000000000  0.0000000000000000
