generated by phonopy
   1.0
    16.5505589290443638    0.0000000000000000    0.0000000000000000
    -0.0000000564635904   16.5505590122831485    0.0000000000000000
     0.0000000178151440   -0.0000000563489204   16.5505590748118223
Au
 256
Direct
  0.0005424169386417  0.0005424161847740  0.0005424188421003
  0.2505424169386417  0.0005424161847740  0.0005424188421003
  0.5005424169386417  0.0005424161847740  0.0005424188421003
  0.7505424169386417  0.0005424161847740  0.0005424188421003
  0.0005424169386417  0.2505424161847740  0.0005424188421003
  0.2505424169386417  0.2505424161847740  0.0005424188421003
  0.5005424169386417  0.2505424161847740  0.0005424188421003
  0.7505424169386417  0.2505424161847740  0.0005424188421003
  0.0005424169386417  0.5005424161847740  0.0005424188421003
  0.2505424169386417  0.5005424161847740  0.0005424188421003
  0.5005424169386417  0.5005424161847740  0.0005424188421003
  0.7505424169386417  0.5005424161847740  0.0005424188421003
  0.0005424169386417  0.7505424161847740  0.0005424188421003
  0.2505424169386417  0.7505424161847740  0.0005424188421003
  0.5005424169386417  0.7505424161847740  0.0005424188421003
  0.7505424169386417  0.7505424161847740  0.0005424188421003
  0.0005424169386417  0.0005424161847740  0.2505424188421003
  0.2505424169386417  0.0005424161847740  0.2505424188421003
  0.5005424169386417  0.0005424161847740  0.2505424188421003
  0.7505424169386417  0.0005424161847740  0.2505424188421003
  0.0005424169386417  0.2505424161847740  0.2505424188421003
  0.2505424169386417  0.2505424161847740  0.2505424188421003
  0.5005424169386417  0.2505424161847740  0.2505424188421003
  0.7505424169386417  0.2505424161847740  0.2505424188421003
  0.0005424169386417  0.5005424161847740  0.2505424188421003
  0.2505424169386417  0.5005424161847740  0.2505424188421003
  0.5005424169386417  0.5005424161847740  0.2505424188421003
  0.7505424169386417  0.5005424161847740  0.2505424188421003
  0.0005424169386417  0.7505424161847740  0.2505424188421003
  0.2505424169386417  0.7505424161847740  0.2505424188421003
  0.5005424169386417  0.7505424161847740  0.2505424188421003
  0.7505424169386417  0.7505424161847740  0.2505424188421003
  0.0005424169386417  0.0005424161847740  0.5005424188421004
  0.2505424169386417  0.0005424161847740  0.5005424188421004
  0.5005424169386417  0.0005424161847740  0.5005424188421004
  0.7505424169386417  0.0005424161847740  0.5005424188421004
  0.0005424169386417  0.2505424161847740  0.5005424188421004
  0.2505424169386417  0.2505424161847740  0.5005424188421004
  0.5005424169386417  0.2505424161847740  0.5005424188421004
  0.7505424169386417  0.2505424161847740  0.5005424188421004
  0.0005424169386417  0.5005424161847740  0.5005424188421004
  0.2505424169386417  0.5005424161847740  0.5005424188421004
  0.5005424169386417  0.5005424161847740  0.5005424188421004
  0.7505424169386417  0.5005424161847740  0.5005424188421004
  0.0005424169386417  0.7505424161847740  0.5005424188421004
  0.2505424169386417  0.7505424161847740  0.5005424188421004
  0.5005424169386417  0.7505424161847740  0.5005424188421004
  0.7505424169386417  0.7505424161847740  0.5005424188421004
  0.0005424169386417  0.0005424161847740  0.7505424188421004
  0.2505424169386417  0.0005424161847740  0.7505424188421004
  0.5005424169386417  0.0005424161847740  0.7505424188421004
  0.7505424169386417  0.0005424161847740  0.7505424188421004
  0.0005424169386417  0.2505424161847740  0.7505424188421004
  0.2505424169386417  0.2505424161847740  0.7505424188421004
  0.5005424169386417  0.2505424161847740  0.7505424188421004
  0.7505424169386417  0.2505424161847740  0.7505424188421004
  0.0005424169386417  0.5005424161847740  0.7505424188421004
  0.2505424169386417  0.5005424161847740  0.7505424188421004
  0.5005424169386417  0.5005424161847740  0.7505424188421004
  0.7505424169386417  0.5005424161847740  0.7505424188421004
  0.0005424169386417  0.7505424161847740  0.7505424188421004
  0.2505424169386417  0.7505424161847740  0.7505424188421004
  0.5005424169386417  0.7505424161847740  0.7505424188421004
  0.7505424169386417  0.7505424161847740  0.7505424188421004
  0.0005424168709153  0.1255424197184153  0.1255424172828490
  0.2505424168709153  0.1255424197184153  0.1255424172828490
  0.5005424168709153  0.1255424197184153  0.1255424172828490
  0.7505424168709153  0.1255424197184153  0.1255424172828490
  0.0005424168709153  0.3755424197184153  0.1255424172828490
  0.2505424168709153  0.3755424197184153  0.1255424172828490
  0.5005424168709153  0.3755424197184153  0.1255424172828490
  0.7505424168709153  0.3755424197184153  0.1255424172828490
  0.0005424168709153  0.6255424197184153  0.1255424172828490
  0.2505424168709153  0.6255424197184153  0.1255424172828490
  0.5005424168709153  0.6255424197184153  0.1255424172828490
  0.7505424168709153  0.6255424197184153  0.1255424172828490
  0.0005424168709153  0.8755424197184153  0.1255424172828490
  0.2505424168709153  0.8755424197184153  0.1255424172828490
  0.5005424168709153  0.8755424197184153  0.1255424172828490
  0.7505424168709153  0.8755424197184153  0.1255424172828490
  0.0005424168709153  0.1255424197184153  0.3755424172828490
  0.2505424168709153  0.1255424197184153  0.3755424172828490
  0.5005424168709153  0.1255424197184153  0.3755424172828490
  0.7505424168709153  0.1255424197184153  0.3755424172828490
  0.0005424168709153  0.3755424197184153  0.3755424172828490
  0.2505424168709153  0.3755424197184153  0.3755424172828490
  0.5005424168709153  0.3755424197184153  0.3755424172828490
  0.7505424168709153  0.3755424197184153  0.3755424172828490
  0.0005424168709153  0.6255424197184153  0.3755424172828490
  0.2505424168709153  0.6255424197184153  0.3755424172828490
  0.5005424168709153  0.6255424197184153  0.3755424172828490
  0.7505424168709153  0.6255424197184153  0.3755424172828490
  0.0005424168709153  0.8755424197184153  0.3755424172828490
  0.2505424168709153  0.8755424197184153  0.3755424172828490
  0.5005424168709153  0.8755424197184153  0.3755424172828490
  0.7505424168709153  0.8755424197184153  0.3755424172828490
  0.0005424168709153  0.1255424197184153  0.6255424172828490
  0.2505424168709153  0.1255424197184153  0.6255424172828490
  0.5005424168709153  0.1255424197184153  0.6255424172828490
  0.7505424168709153  0.1255424197184153  0.6255424172828490
  0.0005424168709153  0.3755424197184153  0.6255424172828490
  0.2505424168709153  0.3755424197184153  0.6255424172828490
  0.5005424168709153  0.3755424197184153  0.6255424172828490
  0.7505424168709153  0.3755424197184153  0.6255424172828490
  0.0005424168709153  0.6255424197184153  0.6255424172828490
  0.2505424168709153  0.6255424197184153  0.6255424172828490
  0.5005424168709153  0.6255424197184153  0.6255424172828490
  0.7505424168709153  0.6255424197184153  0.6255424172828490
  0.0005424168709153  0.8755424197184153  0.6255424172828490
  0.2505424168709153  0.8755424197184153  0.6255424172828490
  0.5005424168709153  0.8755424197184153  0.6255424172828490
  0.7505424168709153  0.8755424197184153  0.6255424172828490
  0.0005424168709153  0.1255424197184153  0.8755424172828490
  0.2505424168709153  0.1255424197184153  0.8755424172828490
  0.5005424168709153  0.1255424197184153  0.8755424172828490
  0.7505424168709153  0.1255424197184153  0.8755424172828490
  0.0005424168709153  0.3755424197184153  0.8755424172828490
  0.2505424168709153  0.3755424197184153  0.8755424172828490
  0.5005424168709153  0.3755424197184153  0.8755424172828490
  0.7505424168709153  0.3755424197184153  0.8755424172828490
  0.0005424168709153  0.6255424197184153  0.8755424172828490
  0.2505424168709153  0.6255424197184153  0.8755424172828490
  0.5005424168709153  0.6255424197184153  0.8755424172828490
  0.7505424168709153  0.6255424197184153  0.8755424172828490
  0.0005424168709153  0.8755424197184153  0.8755424172828490
  0.2505424168709153  0.8755424197184153  0.8755424172828490
  0.5005424168709153  0.8755424197184153  0.8755424172828490
  0.7505424168709153  0.8755424197184153  0.8755424172828490
  0.1255424190050499  0.0005424160799893  0.1255424172220652
  0.3755424190050499  0.0005424160799893  0.1255424172220652
  0.6255424190050498  0.0005424160799893  0.1255424172220652
  0.8755424190050498  0.0005424160799893  0.1255424172220652
  0.1255424190050499  0.2505424160799893  0.1255424172220652
  0.3755424190050499  0.2505424160799893  0.1255424172220652
  0.6255424190050498  0.2505424160799893  0.1255424172220652
  0.8755424190050498  0.2505424160799893  0.1255424172220652
  0.1255424190050499  0.5005424160799893  0.1255424172220652
  0.3755424190050499  0.5005424160799893  0.1255424172220652
  0.6255424190050498  0.5005424160799893  0.1255424172220652
  0.8755424190050498  0.5005424160799893  0.1255424172220652
  0.1255424190050499  0.7505424160799893  0.1255424172220652
  0.3755424190050499  0.7505424160799893  0.1255424172220652
  0.6255424190050498  0.7505424160799893  0.1255424172220652
  0.8755424190050498  0.7505424160799893  0.1255424172220652
  0.1255424190050499  0.0005424160799893  0.3755424172220652
  0.3755424190050499  0.0005424160799893  0.3755424172220652
  0.6255424190050498  0.0005424160799893  0.3755424172220652
  0.8755424190050498  0.0005424160799893  0.3755424172220652
  0.1255424190050499  0.2505424160799893  0.3755424172220652
  0.3755424190050499  0.2505424160799893  0.3755424172220652
  0.6255424190050498  0.2505424160799893  0.3755424172220652
  0.8755424190050498  0.2505424160799893  0.3755424172220652
  0.1255424190050499  0.5005424160799893  0.3755424172220652
  0.3755424190050499  0.5005424160799893  0.3755424172220652
  0.6255424190050498  0.5005424160799893  0.3755424172220652
  0.8755424190050498  0.5005424160799893  0.3755424172220652
  0.1255424190050499  0.7505424160799893  0.3755424172220652
  0.3755424190050499  0.7505424160799893  0.3755424172220652
  0.6255424190050498  0.7505424160799893  0.3755424172220652
  0.8755424190050498  0.7505424160799893  0.3755424172220652
  0.1255424190050499  0.0005424160799893  0.6255424172220652
  0.3755424190050499  0.0005424160799893  0.6255424172220652
  0.6255424190050498  0.0005424160799893  0.6255424172220652
  0.8755424190050498  0.0005424160799893  0.6255424172220652
  0.1255424190050499  0.2505424160799893  0.6255424172220652
  0.3755424190050499  0.2505424160799893  0.6255424172220652
  0.6255424190050498  0.2505424160799893  0.6255424172220652
  0.8755424190050498  0.2505424160799893  0.6255424172220652
  0.1255424190050499  0.5005424160799893  0.6255424172220652
  0.3755424190050499  0.5005424160799893  0.6255424172220652
  0.6255424190050498  0.5005424160799893  0.6255424172220652
  0.8755424190050498  0.5005424160799893  0.6255424172220652
  0.1255424190050499  0.7505424160799893  0.6255424172220652
  0.3755424190050499  0.7505424160799893  0.6255424172220652
  0.6255424190050498  0.7505424160799893  0.6255424172220652
  0.8755424190050498  0.7505424160799893  0.6255424172220652
  0.1255424190050499  0.0005424160799893  0.8755424172220652
  0.3755424190050499  0.0005424160799893  0.8755424172220652
  0.6255424190050498  0.0005424160799893  0.8755424172220652
  0.8755424190050498  0.0005424160799893  0.8755424172220652
  0.1255424190050499  0.2505424160799893  0.8755424172220652
  0.3755424190050499  0.2505424160799893  0.8755424172220652
  0.6255424190050498  0.2505424160799893  0.8755424172220652
  0.8755424190050498  0.2505424160799893  0.8755424172220652
  0.1255424190050499  0.5005424160799893  0.8755424172220652
  0.3755424190050499  0.5005424160799893  0.8755424172220652
  0.6255424190050498  0.5005424160799893  0.8755424172220652
  0.8755424190050498  0.5005424160799893  0.8755424172220652
  0.1255424190050499  0.7505424160799893  0.8755424172220652
  0.3755424190050499  0.7505424160799893  0.8755424172220652
  0.6255424190050498  0.7505424160799893  0.8755424172220652
  0.8755424190050498  0.7505424160799893  0.8755424172220652
  0.1255424189701073  0.1255424197990035  0.0005424184300582
  0.3755424189701073  0.1255424197990035  0.0005424184300582
  0.6255424189701073  0.1255424197990035  0.0005424184300582
  0.8755424189701073  0.1255424197990035  0.0005424184300582
  0.1255424189701073  0.3755424197990035  0.0005424184300582
  0.3755424189701073  0.3755424197990035  0.0005424184300582
  0.6255424189701073  0.3755424197990035  0.0005424184300582
  0.8755424189701073  0.3755424197990035  0.0005424184300582
  0.1255424189701073  0.6255424197990035  0.0005424184300582
  0.3755424189701073  0.6255424197990035  0.0005424184300582
  0.6255424189701073  0.6255424197990035  0.0005424184300582
  0.8755424189701073  0.6255424197990035  0.0005424184300582
  0.1255424189701073  0.8755424197990035  0.0005424184300582
  0.3755424189701073  0.8755424197990035  0.0005424184300582
  0.6255424189701073  0.8755424197990035  0.0005424184300582
  0.8755424189701073  0.8755424197990035  0.0005424184300582
  0.1255424189701073  0.1255424197990035  0.2505424184300581
  0.3755424189701073  0.1255424197990035  0.2505424184300581
  0.6255424189701073  0.1255424197990035  0.2505424184300581
  0.8755424189701073  0.1255424197990035  0.2505424184300581
  0.1255424189701073  0.3755424197990035  0.2505424184300581
  0.3755424189701073  0.3755424197990035  0.2505424184300581
  0.6255424189701073  0.3755424197990035  0.2505424184300581
  0.8755424189701073  0.3755424197990035  0.2505424184300581
  0.1255424189701073  0.6255424197990035  0.2505424184300581
  0.3755424189701073  0.6255424197990035  0.2505424184300581
  0.6255424189701073  0.6255424197990035  0.2505424184300581
  0.8755424189701073  0.6255424197990035  0.2505424184300581
  0.1255424189701073  0.8755424197990035  0.2505424184300581
  0.3755424189701073  0.8755424197990035  0.2505424184300581
  0.6255424189701073  0.8755424197990035  0.2505424184300581
  0.8755424189701073  0.8755424197990035  0.2505424184300581
  0.1255424189701073  0.1255424197990035  0.5005424184300582
  0.3755424189701073  0.1255424197990035  0.5005424184300582
  0.6255424189701073  0.1255424197990035  0.5005424184300582
  0.8755424189701073  0.1255424197990035  0.5005424184300582
  0.1255424189701073  0.3755424197990035  0.5005424184300582
  0.3755424189701073  0.3755424197990035  0.5005424184300582
  0.6255424189701073  0.3755424197990035  0.5005424184300582
  0.8755424189701073  0.3755424197990035  0.5005424184300582
  0.1255424189701073  0.6255424197990035  0.5005424184300582
  0.3755424189701073  0.6255424197990035  0.5005424184300582
  0.6255424189701073  0.6255424197990035  0.5005424184300582
  0.8755424189701073  0.6255424197990035  0.5005424184300582
  0.1255424189701073  0.8755424197990035  0.5005424184300582
  0.3755424189701073  0.8755424197990035  0.5005424184300582
  0.6255424189701073  0.8755424197990035  0.5005424184300582
  0.8755424189701073  0.8755424197990035  0.5005424184300582
  0.1255424189701073  0.1255424197990035  0.7505424184300582
  0.3755424189701073  0.1255424197990035  0.7505424184300582
  0.6255424189701073  0.1255424197990035  0.7505424184300582
  0.8755424189701073  0.1255424197990035  0.7505424184300582
  0.1255424189701073  0.3755424197990035  0.7505424184300582
  0.3755424189701073  0.3755424197990035  0.7505424184300582
  0.6255424189701073  0.3755424197990035  0.7505424184300582
  0.8755424189701073  0.3755424197990035  0.7505424184300582
  0.1255424189701073  0.6255424197990035  0.7505424184300582
  0.3755424189701073  0.6255424197990035  0.7505424184300582
  0.6255424189701073  0.6255424197990035  0.7505424184300582
  0.8755424189701073  0.6255424197990035  0.7505424184300582
  0.1255424189701073  0.8755424197990035  0.7505424184300582
  0.3755424189701073  0.8755424197990035  0.7505424184300582
  0.6255424189701073  0.8755424197990035  0.7505424184300582
  0.8755424189701073  0.8755424197990035  0.7505424184300582
