(written by ASE)

128 atoms
2 atom types

0.0             14.32677816  xlo xhi
0.0             14.32677816  ylo yhi
0.0             14.32677816  zlo zhi

Masses

1 12.0110 # C
2 91.2240 # Zr


Atoms # atomic

     1   2    0.099999999999999312                       0                       0
     2   2              3.58169454                       0                       0
     3   2              7.16338908                       0                       0
     4   2      10.745083619999999                       0                       0
     5   2                       0              3.58169454                       0
     6   2              3.58169454              3.58169454                       0
     7   2              7.16338908              3.58169454                       0
     8   2      10.745083619999999              3.58169454                       0
     9   2                       0              7.16338908                       0
    10   2              3.58169454              7.16338908                       0
    11   2              7.16338908              7.16338908                       0
    12   2      10.745083619999999              7.16338908                       0
    13   2                       0      10.745083619999999                       0
    14   2              3.58169454      10.745083619999999                       0
    15   2              7.16338908      10.745083619999999                       0
    16   2      10.745083619999999      10.745083619999999                       0
    17   2                       0                       0              3.58169454
    18   2              3.58169454                       0              3.58169454
    19   2              7.16338908                       0              3.58169454
    20   2      10.745083619999999                       0              3.58169454
    21   2                       0              3.58169454              3.58169454
    22   2              3.58169454              3.58169454              3.58169454
    23   2              7.16338908              3.58169454              3.58169454
    24   2      10.745083619999999              3.58169454              3.58169454
    25   2                       0              7.16338908              3.58169454
    26   2              3.58169454              7.16338908              3.58169454
    27   2              7.16338908              7.16338908              3.58169454
    28   2      10.745083619999999              7.16338908              3.58169454
    29   2                       0      10.745083619999999              3.58169454
    30   2              3.58169454      10.745083619999999              3.58169454
    31   2              7.16338908      10.745083619999999              3.58169454
    32   2      10.745083619999999      10.745083619999999              3.58169454
    33   2                       0                       0              7.16338908
    34   2              3.58169454                       0              7.16338908
    35   2              7.16338908                       0              7.16338908
    36   2      10.745083619999999                       0              7.16338908
    37   2                       0              3.58169454              7.16338908
    38   2              3.58169454              3.58169454              7.16338908
    39   2              7.16338908              3.58169454              7.16338908
    40   2      10.745083619999999              3.58169454              7.16338908
    41   2                       0              7.16338908              7.16338908
    42   2              3.58169454              7.16338908              7.16338908
    43   2              7.16338908              7.16338908              7.16338908
    44   2      10.745083619999999              7.16338908              7.16338908
    45   2                       0      10.745083619999999              7.16338908
    46   2              3.58169454      10.745083619999999              7.16338908
    47   2              7.16338908      10.745083619999999              7.16338908
    48   2      10.745083619999999      10.745083619999999              7.16338908
    49   2                       0                       0      10.745083619999999
    50   2              3.58169454                       0      10.745083619999999
    51   2              7.16338908                       0      10.745083619999999
    52   2      10.745083619999999                       0      10.745083619999999
    53   2                       0              3.58169454      10.745083619999999
    54   2              3.58169454              3.58169454      10.745083619999999
    55   2              7.16338908              3.58169454      10.745083619999999
    56   2      10.745083619999999              3.58169454      10.745083619999999
    57   2                       0              7.16338908      10.745083619999999
    58   2              3.58169454              7.16338908      10.745083619999999
    59   2              7.16338908              7.16338908      10.745083619999999
    60   2      10.745083619999999              7.16338908      10.745083619999999
    61   2                       0      10.745083619999999      10.745083619999999
    62   2              3.58169454      10.745083619999999      10.745083619999999
    63   2              7.16338908      10.745083619999999      10.745083619999999
    64   2      10.745083619999999      10.745083619999999      10.745083619999999
    65   2              1.79084727              1.79084727              1.79084727
    66   2      5.3725418099999986              1.79084727              1.79084727
    67   2      8.9542363500000004              1.79084727              1.79084727
    68   2      12.535930889999999              1.79084727              1.79084727
    69   2              1.79084727      5.3725418099999986              1.79084727
    70   2      5.3725418099999986      5.3725418099999986              1.79084727
    71   2      8.9542363500000004      5.3725418099999986              1.79084727
    72   2      12.535930889999999      5.3725418099999986              1.79084727
    73   2              1.79084727      8.9542363500000004              1.79084727
    74   2      5.3725418099999986      8.9542363500000004              1.79084727
    75   2      8.9542363500000004      8.9542363500000004              1.79084727
    76   2      12.535930889999999      8.9542363500000004              1.79084727
    77   2              1.79084727      12.535930889999999              1.79084727
    78   2      5.3725418099999986      12.535930889999999              1.79084727
    79   2      8.9542363500000004      12.535930889999999              1.79084727
    80   2      12.535930889999999      12.535930889999999              1.79084727
    81   2              1.79084727              1.79084727      5.3725418099999986
    82   2      5.3725418099999986              1.79084727      5.3725418099999986
    83   2      8.9542363500000004              1.79084727      5.3725418099999986
    84   2      12.535930889999999              1.79084727      5.3725418099999986
    85   2              1.79084727      5.3725418099999986      5.3725418099999986
    86   2      5.3725418099999986      5.3725418099999986      5.3725418099999986
    87   2      8.9542363500000004      5.3725418099999986      5.3725418099999986
    88   2      12.535930889999999      5.3725418099999986      5.3725418099999986
    89   2              1.79084727      8.9542363500000004      5.3725418099999986
    90   2      5.3725418099999986      8.9542363500000004      5.3725418099999986
    91   2      8.9542363500000004      8.9542363500000004      5.3725418099999986
    92   2      12.535930889999999      8.9542363500000004      5.3725418099999986
    93   2              1.79084727      12.535930889999999      5.3725418099999986
    94   2      5.3725418099999986      12.535930889999999      5.3725418099999986
    95   2      8.9542363500000004      12.535930889999999      5.3725418099999986
    96   2      12.535930889999999      12.535930889999999      5.3725418099999986
    97   2              1.79084727              1.79084727      8.9542363500000004
    98   2      5.3725418099999986              1.79084727      8.9542363500000004
    99   2      8.9542363500000004              1.79084727      8.9542363500000004
   100   2      12.535930889999999              1.79084727      8.9542363500000004
   101   2              1.79084727      5.3725418099999986      8.9542363500000004
   102   2      5.3725418099999986      5.3725418099999986      8.9542363500000004
   103   2      8.9542363500000004      5.3725418099999986      8.9542363500000004
   104   2      12.535930889999999      5.3725418099999986      8.9542363500000004
   105   2              1.79084727      8.9542363500000004      8.9542363500000004
   106   2      5.3725418099999986      8.9542363500000004      8.9542363500000004
   107   2      8.9542363500000004      8.9542363500000004      8.9542363500000004
   108   2      12.535930889999999      8.9542363500000004      8.9542363500000004
   109   2              1.79084727      12.535930889999999      8.9542363500000004
   110   2      5.3725418099999986      12.535930889999999      8.9542363500000004
   111   2      8.9542363500000004      12.535930889999999      8.9542363500000004
   112   2      12.535930889999999      12.535930889999999      8.9542363500000004
   113   2              1.79084727              1.79084727      12.535930889999999
   114   2      5.3725418099999986              1.79084727      12.535930889999999
   115   2      8.9542363500000004              1.79084727      12.535930889999999
   116   2      12.535930889999999              1.79084727      12.535930889999999
   117   2              1.79084727      5.3725418099999986      12.535930889999999
   118   2      5.3725418099999986      5.3725418099999986      12.535930889999999
   119   2      8.9542363500000004      5.3725418099999986      12.535930889999999
   120   2      12.535930889999999      5.3725418099999986      12.535930889999999
   121   2              1.79084727      8.9542363500000004      12.535930889999999
   122   2      5.3725418099999986      8.9542363500000004      12.535930889999999
   123   2      8.9542363500000004      8.9542363500000004      12.535930889999999
   124   2      12.535930889999999      8.9542363500000004      12.535930889999999
   125   2              1.79084727      12.535930889999999      12.535930889999999
   126   2      5.3725418099999986      12.535930889999999      12.535930889999999
   127   2      8.9542363500000004      12.535930889999999      12.535930889999999
   128   2      12.535930889999999      12.535930889999999      12.535930889999999
