ITEM: TIMESTEP
0
ITEM: NUMBER OF ATOMS
128
ITEM: BOX BOUNDS pp pp pp
0.0000000000000000e+00 1.4326778160000000e+01
0.0000000000000000e+00 1.4326778160000000e+01
0.0000000000000000e+00 1.4326778160000000e+01
ITEM: ATOMS id type x y z fx fy fz
1 2 0.1 0 0 -0.269648 7.49401e-16 2.72005e-15
65 2 1.79085 1.79085 1.79085 0.029765 0.0511882 0.0511882
2 2 3.58169 0 0 -0.0840403 5.46377e-15 3.40431e-15
66 2 5.37254 1.79085 1.79085 0.0011838 0.00228888 0.00228888
5 2 0 3.58169 0 0.0206032 0.0103134 6.31504e-15
69 2 1.79085 5.37254 1.79085 -0.000948134 0.0037314 -0.000739349
6 2 3.58169 3.58169 0 0.00428314 0.0141119 6.03471e-15
70 2 5.37254 5.37254 1.79085 -6.99441e-15 -3.9968e-15 2.77556e-15
17 2 0 0 3.58169 0.0206032 -1.43219e-14 0.0103134
81 2 1.79085 1.79085 5.37254 -0.000948134 -0.000739349 0.0037314
18 2 3.58169 0 3.58169 0.00428314 -4.99036e-15 0.0141119
82 2 5.37254 1.79085 5.37254 -1.4766e-14 -5.13478e-16 6.35115e-15
21 2 0 3.58169 3.58169 5.70166e-05 -0.000181424 -0.000181424
85 2 1.79085 5.37254 5.37254 -7.56339e-16 -1.98799e-14 8.46212e-15
22 2 3.58169 3.58169 3.58169 -0.00132682 0.00235622 0.00235622
86 2 5.37254 5.37254 5.37254 -1.19904e-14 6.93889e-16 4.84335e-15
33 2 0 0 7.16339 -0.000357189 -9.76996e-15 3.05311e-15
97 2 1.79085 1.79085 8.95424 -0.000948134 -0.000739349 -0.0037314
34 2 3.58169 0 7.16339 5.25968e-15 -1.74155e-14 -9.6217e-15
98 2 5.37254 1.79085 8.95424 -1.11022e-15 9.4369e-15 -1.04233e-14
37 2 0 3.58169 7.16339 -2.30926e-14 1.22055e-14 -9.02558e-15
101 2 1.79085 5.37254 8.95424 1.21778e-14 1.86247e-15 -1.3921e-14
38 2 3.58169 3.58169 7.16339 2.9074e-15 3.13235e-15 4.42576e-15
102 2 5.37254 5.37254 8.95424 -5.55112e-16 4.94049e-15 -1.66256e-14
49 2 0 0 10.7451 0.0206032 1.29063e-14 -0.0103134
113 2 1.79085 1.79085 12.5359 0.029765 0.0511882 -0.0511882
50 2 3.58169 0 10.7451 0.00428314 -1.06604e-14 -0.0141119
114 2 5.37254 1.79085 12.5359 0.0011838 0.00228888 -0.00228888
53 2 0 3.58169 10.7451 5.70166e-05 -0.000181424 0.000181424
117 2 1.79085 5.37254 12.5359 -0.000948134 0.0037314 0.000739349
54 2 3.58169 3.58169 10.7451 -0.00132682 0.00235622 -0.00235622
118 2 5.37254 5.37254 12.5359 -1.11022e-14 -3.60822e-15 -4.51028e-15
9 2 0 7.16339 0 -0.000357189 -2.41474e-15 1.47937e-14
13 2 0 10.7451 0 0.0206032 -0.0103134 1.54129e-14
73 2 1.79085 8.95424 1.79085 -0.000948134 -0.0037314 -0.000739349
10 2 3.58169 7.16339 0 -1.47382e-14 -9.44896e-15 -4.3994e-15
14 2 3.58169 10.7451 0 0.00428314 -0.0141119 -3.34331e-15
74 2 5.37254 8.95424 1.79085 8.65974e-15 -1.2895e-15 -7.83219e-16
77 2 1.79085 12.5359 1.79085 0.029765 -0.0511882 0.0511882
78 2 5.37254 12.5359 1.79085 0.0011838 -0.00228888 0.00228888
25 2 0 7.16339 3.58169 -1.19904e-14 -1.78191e-14 -2.53131e-14
29 2 0 10.7451 3.58169 5.70166e-05 0.000181424 -0.000181424
89 2 1.79085 8.95424 5.37254 3.06005e-15 1.65518e-15 1.41103e-14
26 2 3.58169 7.16339 3.58169 -1.33157e-14 -2.89434e-15 -1.25533e-14
30 2 3.58169 10.7451 3.58169 -0.00132682 -0.00235622 0.00235622
90 2 5.37254 8.95424 5.37254 -3.55271e-15 -1.38245e-14 2.80733e-15
93 2 1.79085 12.5359 5.37254 -0.000948134 0.000739349 0.0037314
94 2 5.37254 12.5359 5.37254 -4.88498e-15 -6.32827e-15 -9.45077e-15
41 2 0 7.16339 7.16339 -2.55351e-15 -5.85643e-15 -1.99701e-14
45 2 0 10.7451 7.16339 6.77236e-15 6.10623e-16 -2.13128e-14
105 2 1.79085 8.95424 8.95424 2.00673e-14 -9.07321e-15 -6.0864e-15
42 2 3.58169 7.16339 7.16339 -7.25808e-15 -2.23608e-15 -4.89544e-15
46 2 3.58169 10.7451 7.16339 -4.59355e-15 5.30436e-15 -9.67129e-15
106 2 5.37254 8.95424 8.95424 1.26565e-14 2.38017e-15 1.18156e-14
109 2 1.79085 12.5359 8.95424 -0.000948134 0.000739349 -0.0037314
110 2 5.37254 12.5359 8.95424 1.83187e-14 -6.38378e-15 1.64591e-14
57 2 0 7.16339 10.7451 -2.66454e-15 -4.21885e-15 1.74999e-14
61 2 0 10.7451 10.7451 5.70166e-05 0.000181424 0.000181424
121 2 1.79085 8.95424 12.5359 -0.000948134 -0.0037314 0.000739349
58 2 3.58169 7.16339 10.7451 -7.56339e-16 6.754e-15 2.30402e-14
62 2 3.58169 10.7451 10.7451 -0.00132682 -0.00235622 -0.00235622
122 2 5.37254 8.95424 12.5359 1.53211e-14 1.78318e-14 -1.92198e-14
125 2 1.79085 12.5359 12.5359 0.029765 -0.0511882 -0.0511882
126 2 5.37254 12.5359 12.5359 0.0011838 -0.00228888 -0.00228888
3 2 7.16339 0 0 0.0469531 1.56819e-14 7.64666e-15
4 2 10.7451 0 0 -0.0740004 1.38778e-14 1.17396e-14
67 2 8.95424 1.79085 1.79085 0.00142952 -0.00312614 -0.00312614
68 2 12.5359 1.79085 1.79085 0.0387025 -0.0454642 -0.0454642
7 2 7.16339 3.58169 0 -9.4369e-15 -2.29955e-14 -1.15914e-14
8 2 10.7451 3.58169 0 0.00575165 -0.0142511 -2.43804e-15
71 2 8.95424 5.37254 1.79085 2.45637e-15 2.15192e-14 -1.77976e-15
72 2 12.5359 5.37254 1.79085 -0.00092376 -0.00281022 0.000722444
19 2 7.16339 0 3.58169 -2.0095e-14 -3.85803e-15 -2.48412e-14
20 2 10.7451 0 3.58169 0.00575165 -3.58066e-15 -0.0142511
83 2 8.95424 1.79085 5.37254 6.37684e-15 4.53336e-15 1.25451e-14
84 2 12.5359 1.79085 5.37254 -0.00092376 0.000722444 -0.00281022
23 2 7.16339 3.58169 3.58169 3.33067e-15 -1.35725e-14 -2.09839e-14
24 2 10.7451 3.58169 3.58169 -0.00134262 -0.00172685 -0.00172685
87 2 8.95424 5.37254 5.37254 -8.46545e-16 8.8892e-15 2.94443e-15
88 2 12.5359 5.37254 5.37254 -7.99361e-15 -4.88498e-15 -5.55112e-15
35 2 7.16339 0 7.16339 1.11022e-16 1.14908e-14 -6.18949e-15
36 2 10.7451 0 7.16339 1.7486e-15 8.21979e-15 -1.98004e-14
99 2 8.95424 1.79085 8.95424 -1.03667e-14 1.48384e-14 -1.34691e-14
100 2 12.5359 1.79085 8.95424 -0.00092376 0.000722444 0.00281022
39 2 7.16339 3.58169 7.16339 5.10703e-15 -1.43704e-14 4.06134e-15
40 2 10.7451 3.58169 7.16339 9.42302e-15 6.83797e-16 -7.43725e-15
103 2 8.95424 5.37254 8.95424 1.15671e-14 2.09042e-14 3.96081e-15
104 2 12.5359 5.37254 8.95424 -1.39888e-14 2.74225e-14 1.00198e-14
51 2 7.16339 0 10.7451 -8.65974e-15 2.9976e-15 2.60209e-14
52 2 10.7451 0 10.7451 0.00575165 2.81828e-14 0.0142511
115 2 8.95424 1.79085 12.5359 0.00142952 -0.00312614 0.00312614
116 2 12.5359 1.79085 12.5359 0.0387025 -0.0454642 0.0454642
55 2 7.16339 3.58169 10.7451 5.44009e-15 -4.25354e-15 3.29444e-14
56 2 10.7451 3.58169 10.7451 -0.00134262 -0.00172685 0.00172685
119 2 8.95424 5.37254 12.5359 2.06085e-14 2.73155e-14 -8.22188e-15
120 2 12.5359 5.37254 12.5359 -0.00092376 -0.00281022 -0.000722444
11 2 7.16339 7.16339 0 6.99441e-15 -2.05391e-15 1.56819e-15
12 2 10.7451 7.16339 0 1.66395e-14 -2.21758e-14 3.23956e-15
15 2 7.16339 10.7451 0 -2.67564e-14 1.12826e-14 -3.34777e-16
16 2 10.7451 10.7451 0 0.00575165 0.0142511 2.40461e-14
75 2 8.95424 8.95424 1.79085 -2.10248e-15 -1.34376e-14 1.53889e-14
76 2 12.5359 8.95424 1.79085 -0.00092376 0.00281022 0.000722444
79 2 8.95424 12.5359 1.79085 0.00142952 0.00312614 -0.00312614
80 2 12.5359 12.5359 1.79085 0.0387025 0.0454642 -0.0454642
27 2 7.16339 7.16339 3.58169 5.55112e-15 4.4964e-15 -1.51962e-14
28 2 10.7451 7.16339 3.58169 1.79995e-14 -1.74232e-14 -6.87447e-15
31 2 7.16339 10.7451 3.58169 -7.99361e-15 1.98799e-14 -4.32082e-15
32 2 10.7451 10.7451 3.58169 -0.00134262 0.00172685 -0.00172685
91 2 8.95424 8.95424 5.37254 2.08306e-14 -4.94405e-16 1.34887e-14
92 2 12.5359 8.95424 5.37254 -9.54792e-15 1.2212e-14 2.09947e-14
95 2 8.95424 12.5359 5.37254 1.99354e-14 -5.79677e-15 1.87471e-14
96 2 12.5359 12.5359 5.37254 -0.00092376 -0.000722444 -0.00281022
43 2 7.16339 7.16339 7.16339 1.16573e-14 1.7486e-15 2.51188e-15
44 2 10.7451 7.16339 7.16339 6.07153e-15 -2.22008e-14 -5.85614e-15
47 2 7.16339 10.7451 7.16339 -1.26565e-14 3.46945e-15 -4.46632e-15
48 2 10.7451 10.7451 7.16339 -2.35922e-15 -1.40213e-15 -2.57614e-14
107 2 8.95424 8.95424 8.95424 2.8727e-15 -5.11484e-15 9.65982e-15
108 2 12.5359 8.95424 8.95424 -1.77636e-14 -8.44367e-16 8.85217e-15
111 2 8.95424 12.5359 8.95424 8.09075e-15 -1.01283e-14 1.12119e-14
112 2 12.5359 12.5359 8.95424 -0.00092376 -0.000722444 0.00281022
59 2 7.16339 7.16339 10.7451 -2.44249e-15 -9.15934e-15 7.60503e-15
60 2 10.7451 7.16339 10.7451 2.85189e-15 -2.40813e-14 2.4879e-15
63 2 7.16339 10.7451 10.7451 -2.9976e-14 6.80012e-16 7.96727e-15
64 2 10.7451 10.7451 10.7451 -0.00134262 0.00172685 0.00172685
123 2 8.95424 8.95424 12.5359 1.22749e-14 7.50433e-16 -1.91966e-14
124 2 12.5359 8.95424 12.5359 -0.00092376 0.00281022 -0.000722444
127 2 8.95424 12.5359 12.5359 0.00142952 0.00312614 0.00312614
128 2 12.5359 12.5359 12.5359 0.0387025 0.0454642 0.0454642
