generated by phonopy
   1.0
     8.5686327578999997    0.0000000000000000    0.0000000000000000
     4.2843163787999998    7.4206536440999997    0.0000000000000000
     4.2843163787999998    2.4735512148000001    6.9962593499999990
Al
  27
Direct
  0.0116704733211729  0.0000000000000000  0.0000000000000000
  0.3333333333333333  0.0000000000000000  0.0000000000000000
  0.6666666666666665  0.0000000000000000  0.0000000000000000
  0.0000000000000000  0.3333333333333333  0.0000000000000000
  0.3333333333333333  0.3333333333333333  0.0000000000000000
  0.6666666666666666  0.3333333333333333  0.0000000000000000
  0.0000000000000000  0.6666666666666665  0.0000000000000000
  0.3333333333333333  0.6666666666666665  0.0000000000000000
  0.6666666666666666  0.6666666666666665  0.0000000000000000
  0.0000000000000000  0.0000000000000000  0.3333333333333333
  0.3333333333333333  0.0000000000000000  0.3333333333333333
  0.6666666666666666  0.0000000000000000  0.3333333333333333
  0.0000000000000000  0.3333333333333333  0.3333333333333333
  0.3333333333333334  0.3333333333333333  0.3333333333333333
  0.6666666666666666  0.3333333333333333  0.3333333333333333
  0.0000000000000001  0.6666666666666666  0.3333333333333333
  0.3333333333333334  0.6666666666666666  0.3333333333333333
  0.6666666666666665  0.6666666666666666  0.3333333333333333
  0.0000000000000000  0.0000000000000000  0.6666666666666665
  0.3333333333333333  0.0000000000000000  0.6666666666666665
  0.6666666666666666  0.0000000000000000  0.6666666666666665
  0.0000000000000001  0.3333333333333333  0.6666666666666665
  0.3333333333333334  0.3333333333333333  0.6666666666666665
  0.6666666666666665  0.3333333333333333  0.6666666666666665
  0.0000000000000001  0.6666666666666665  0.6666666666666665
  0.3333333333333334  0.6666666666666665  0.6666666666666665
  0.6666666666666667  0.6666666666666665  0.6666666666666665
