(written by ASE)

27 atoms
2 atom types

0.0      8.5686327578999997  xlo xhi
0.0      7.4206536440999997  ylo yhi
0.0      6.9962593499999981  zlo zhi
     4.2843163787999998      4.2843163787999998      2.4735512148000001  xy xz yz

Masses

1 12.0110 # C
2 26.9815 # Al


Atoms # atomic

     1   2     0.10000000000000012  8.8523327492242332e-19                       0
     2   2      2.8562109192999996  2.5284129459611209e-17                       0
     3   2      5.7124218385999983  5.0568258919222411e-17                       0
     4   2      1.4281054595999998      2.4735512146999996                       0
     5   2      4.2843163788999998      2.4735512146999996                       0
     6   2      7.1405272981999994      2.4735512146999996                       0
     7   2      2.8562109191999991      4.9471024293999983                       0
     8   2      5.7124218384999992      4.9471024293999983                       0
     9   2      8.5686327577999979      4.9471024293999983                       0
    10   2      1.4281054595999998     0.82451707159999998      2.3320864499999998
    11   2      4.2843163788999998     0.82451707159999998      2.3320864499999998
    12   2      7.1405272981999994      0.8245170716000001      2.3320864499999998
    13   2      2.8562109191999996      3.2980682862999995      2.3320864499999998
    14   2       5.712421838500001      3.2980682862999995      2.3320864499999998
    15   2      8.5686327577999997      3.2980682862999995      2.3320864499999998
    16   2      4.2843163788000007      5.7716195009999991      2.3320864499999998
    17   2      7.1405272981000003      5.7716195009999991      2.3320864499999998
    18   2      9.9967382173999972      5.7716195009999991      2.3320864499999998
    19   2      2.8562109191999991      1.6490341431999997      4.6641728999999996
    20   2      5.7124218384999992      1.6490341431999997      4.6641728999999996
    21   2      8.5686327577999979      1.6490341431999997      4.6641728999999996
    22   2      4.2843163787999998      4.1225853578999994      4.6641728999999996
    23   2      7.1405272981000003      4.1225853578999994      4.6641728999999996
    24   2      9.9967382173999972      4.1225853578999994      4.6641728999999996
    25   2      5.7124218383999992      6.5961365725999981      4.6641728999999996
    26   2      8.5686327576999997      6.5961365725999981      4.6641728999999996
    27   2      11.424843676999998      6.5961365725999981      4.6641728999999996
