ITEM: TIMESTEP
0
ITEM: NUMBER OF ATOMS
27
ITEM: BOX BOUNDS xy xz yz pp pp pp
0.0000000000000000e+00 1.7137265515499998e+01 4.2843163787999998e+00
0.0000000000000000e+00 9.8942048589000002e+00 4.2843163787999998e+00
0.0000000000000000e+00 6.9962593499999981e+00 2.4735512148000001e+00
ITEM: ATOMS id type x y z fx fy fz
1 2 0.1 8.85233e-19 0 -0.382613 -3.27903e-11 -2.31805e-11
4 2 1.42811 2.47355 0 0.0246145 0.0525313 0.000507131
10 2 1.42811 0.824517 2.33209 0.0246145 0.0179886 0.049358
13 2 2.85621 3.29807 2.33209 -0.00101875 -0.00261464 -0.00184883
22 2 4.28432 4.12259 4.66417 -0.00419337 -0.00134784 0.00190614
16 2 4.28432 5.77162 2.33209 -0.00419337 0.00134784 -0.00190614
25 2 5.71242 6.59614 4.66417 -0.000998723 -0.00259325 -0.0018337
2 2 2.85621 2.52841e-17 0 0.138731 6.39266e-13 4.58432e-13
5 2 4.28432 2.47355 0 -0.00549853 -0.000126223 -2.47889e-06
11 2 4.28432 0.824517 2.33209 -0.00549853 -4.44114e-05 -0.000118178
14 2 5.71242 3.29807 2.33209 -0.000998723 0.00259325 0.0018337
20 2 5.71242 1.64903 4.66417 0.0246145 -0.0179886 -0.049358
23 2 7.14053 4.12259 4.66417 0.00200019 -0.000254987 0.000360606
8 2 5.71242 4.9471 0 0.0246145 -0.0525313 -0.000507131
17 2 7.14053 5.77162 2.33209 0.00200019 0.000254987 -0.000360606
26 2 8.56863 6.59614 4.66417 0.00283246 -0.000254641 -0.000180059
3 2 5.71242 5.05683e-17 0 0.0790033 5.44214e-13 3.91624e-13
6 2 7.14053 2.47355 0 0.022166 -0.0420235 -0.000237614
12 2 7.14053 0.824517 2.33209 0.022166 -0.0142318 -0.0395409
15 2 8.56863 3.29807 2.33209 0.00283246 0.000254641 0.000180059
21 2 8.56863 1.64903 4.66417 -0.00549853 4.44114e-05 0.000118178
24 2 9.99674 4.12259 4.66417 0.0012538 0.00105037 -0.00148545
9 2 8.56863 4.9471 0 -0.00549853 0.000126223 2.47889e-06
18 2 9.99674 5.77162 2.33209 0.0012538 -0.00105037 0.00148545
27 2 11.4248 6.59614 4.66417 -0.00101875 0.00261464 0.00184883
19 2 11.4248 1.64903 4.66417 0.022166 0.0142318 0.0395409
7 2 11.4248 4.9471 0 0.022166 0.0420235 0.000237614
