C 
 1.0000000000000000
     2.5001754290000000    0.0000000000000000    0.0000000000000000
     1.2500877145000000    2.1652154353999999    0.0000000000000000
     1.2500877145000000    0.7217384784999999    2.0413846895000001
 C  
   2
Direct
  0.9999974546179016  0.9999974545877599  0.9999974545708965
  0.2499975960007659  0.2499975960264788  0.2499975960067569
