generated by phonopy
   1.0
    10.0007017160000000    0.0000000000000000    0.0000000000000000
     5.0003508580000000    8.6608617415999998    0.0000000000000000
     5.0003508580000000    2.8869539139999998    8.1655387580000003
C
 128
Direct
  0.2499993636544754  0.2499993636469400  0.2499993636427241
  0.4999993636544754  0.2499993636469400  0.2499993636427241
  0.7499993636544754  0.2499993636469400  0.2499993636427241
  0.9999993636544754  0.2499993636469400  0.2499993636427241
  0.2499993636544754  0.4999993636469400  0.2499993636427241
  0.4999993636544754  0.4999993636469400  0.2499993636427241
  0.7499993636544754  0.4999993636469400  0.2499993636427241
  0.9999993636544754  0.4999993636469400  0.2499993636427241
  0.2499993636544754  0.7499993636469400  0.2499993636427241
  0.4999993636544754  0.7499993636469400  0.2499993636427241
  0.7499993636544754  0.7499993636469400  0.2499993636427241
  0.9999993636544754  0.7499993636469400  0.2499993636427241
  0.2499993636544754  0.9999993636469400  0.2499993636427241
  0.4999993636544754  0.9999993636469400  0.2499993636427241
  0.7499993636544754  0.9999993636469400  0.2499993636427241
  0.9999993636544754  0.9999993636469400  0.2499993636427241
  0.2499993636544754  0.2499993636469400  0.4999993636427241
  0.4999993636544754  0.2499993636469400  0.4999993636427241
  0.7499993636544754  0.2499993636469400  0.4999993636427241
  0.9999993636544754  0.2499993636469400  0.4999993636427241
  0.2499993636544754  0.4999993636469400  0.4999993636427241
  0.4999993636544754  0.4999993636469400  0.4999993636427241
  0.7499993636544754  0.4999993636469400  0.4999993636427241
  0.9999993636544754  0.4999993636469400  0.4999993636427241
  0.2499993636544754  0.7499993636469400  0.4999993636427241
  0.4999993636544754  0.7499993636469400  0.4999993636427241
  0.7499993636544754  0.7499993636469400  0.4999993636427241
  0.9999993636544754  0.7499993636469400  0.4999993636427241
  0.2499993636544754  0.9999993636469400  0.4999993636427241
  0.4999993636544754  0.9999993636469400  0.4999993636427241
  0.7499993636544754  0.9999993636469400  0.4999993636427241
  0.9999993636544754  0.9999993636469400  0.4999993636427241
  0.2499993636544754  0.2499993636469400  0.7499993636427241
  0.4999993636544754  0.2499993636469400  0.7499993636427241
  0.7499993636544754  0.2499993636469400  0.7499993636427241
  0.9999993636544754  0.2499993636469400  0.7499993636427241
  0.2499993636544754  0.4999993636469400  0.7499993636427241
  0.4999993636544754  0.4999993636469400  0.7499993636427241
  0.7499993636544754  0.4999993636469400  0.7499993636427241
  0.9999993636544754  0.4999993636469400  0.7499993636427241
  0.2499993636544754  0.7499993636469400  0.7499993636427241
  0.4999993636544754  0.7499993636469400  0.7499993636427241
  0.7499993636544754  0.7499993636469400  0.7499993636427241
  0.9999993636544754  0.7499993636469400  0.7499993636427241
  0.2499993636544754  0.9999993636469400  0.7499993636427241
  0.4999993636544754  0.9999993636469400  0.7499993636427241
  0.7499993636544754  0.9999993636469400  0.7499993636427241
  0.9999993636544754  0.9999993636469400  0.7499993636427241
  0.2499993636544754  0.2499993636469400  0.9999993636427241
  0.4999993636544754  0.2499993636469400  0.9999993636427241
  0.7499993636544754  0.2499993636469400  0.9999993636427241
  0.9999993636544754  0.2499993636469400  0.9999993636427241
  0.2499993636544754  0.4999993636469400  0.9999993636427241
  0.4999993636544754  0.4999993636469400  0.9999993636427241
  0.7499993636544754  0.4999993636469400  0.9999993636427241
  0.9999993636544754  0.4999993636469400  0.9999993636427241
  0.2499993636544754  0.7499993636469400  0.9999993636427241
  0.4999993636544754  0.7499993636469400  0.9999993636427241
  0.7499993636544754  0.7499993636469400  0.9999993636427241
  0.9999993636544754  0.7499993636469400  0.9999993636427241
  0.2499993636544754  0.9999993636469400  0.9999993636427241
  0.4999993636544754  0.9999993636469400  0.9999993636427241
  0.7499993636544754  0.9999993636469400  0.9999993636427241
  0.9999993636544754  0.9999993636469400  0.9999993636427241
  0.0624993990001915  0.0624993990066197  0.0624993990016892
  0.3124993990001915  0.0624993990066197  0.0624993990016892
  0.5624993990001915  0.0624993990066197  0.0624993990016892
  0.8124993990001915  0.0624993990066197  0.0624993990016892
  0.0624993990001915  0.3124993990066197  0.0624993990016892
  0.3124993990001915  0.3124993990066197  0.0624993990016892
  0.5624993990001915  0.3124993990066197  0.0624993990016892
  0.8124993990001915  0.3124993990066197  0.0624993990016892
  0.0624993990001915  0.5624993990066197  0.0624993990016892
  0.3124993990001915  0.5624993990066197  0.0624993990016892
  0.5624993990001915  0.5624993990066197  0.0624993990016892
  0.8124993990001915  0.5624993990066197  0.0624993990016892
  0.0624993990001915  0.8124993990066197  0.0624993990016892
  0.3124993990001915  0.8124993990066197  0.0624993990016892
  0.5624993990001915  0.8124993990066197  0.0624993990016892
  0.8124993990001915  0.8124993990066197  0.0624993990016892
  0.0624993990001915  0.0624993990066197  0.3124993990016892
  0.3124993990001915  0.0624993990066197  0.3124993990016892
  0.5624993990001915  0.0624993990066197  0.3124993990016892
  0.8124993990001915  0.0624993990066197  0.3124993990016892
  0.0624993990001915  0.3124993990066197  0.3124993990016892
  0.3124993990001915  0.3124993990066197  0.3124993990016892
  0.5624993990001915  0.3124993990066197  0.3124993990016892
  0.8124993990001915  0.3124993990066197  0.3124993990016892
  0.0624993990001915  0.5624993990066197  0.3124993990016892
  0.3124993990001915  0.5624993990066197  0.3124993990016892
  0.5624993990001915  0.5624993990066197  0.3124993990016892
  0.8124993990001915  0.5624993990066197  0.3124993990016892
  0.0624993990001915  0.8124993990066197  0.3124993990016892
  0.3124993990001915  0.8124993990066197  0.3124993990016892
  0.5624993990001915  0.8124993990066197  0.3124993990016892
  0.8124993990001915  0.8124993990066197  0.3124993990016892
  0.0624993990001915  0.0624993990066197  0.5624993990016892
  0.3124993990001915  0.0624993990066197  0.5624993990016892
  0.5624993990001915  0.0624993990066197  0.5624993990016892
  0.8124993990001915  0.0624993990066197  0.5624993990016892
  0.0624993990001915  0.3124993990066197  0.5624993990016892
  0.3124993990001915  0.3124993990066197  0.5624993990016892
  0.5624993990001915  0.3124993990066197  0.5624993990016892
  0.8124993990001915  0.3124993990066197  0.5624993990016892
  0.0624993990001915  0.5624993990066197  0.5624993990016892
  0.3124993990001915  0.5624993990066197  0.5624993990016892
  0.5624993990001915  0.5624993990066197  0.5624993990016892
  0.8124993990001915  0.5624993990066197  0.5624993990016892
  0.0624993990001915  0.8124993990066197  0.5624993990016892
  0.3124993990001915  0.8124993990066197  0.5624993990016892
  0.5624993990001915  0.8124993990066197  0.5624993990016892
  0.8124993990001915  0.8124993990066197  0.5624993990016892
  0.0624993990001915  0.0624993990066197  0.8124993990016892
  0.3124993990001915  0.0624993990066197  0.8124993990016892
  0.5624993990001915  0.0624993990066197  0.8124993990016892
  0.8124993990001915  0.0624993990066197  0.8124993990016892
  0.0624993990001915  0.3124993990066197  0.8124993990016892
  0.3124993990001915  0.3124993990066197  0.8124993990016892
  0.5624993990001915  0.3124993990066197  0.8124993990016892
  0.8124993990001915  0.3124993990066197  0.8124993990016892
  0.0624993990001915  0.5624993990066197  0.8124993990016892
  0.3124993990001915  0.5624993990066197  0.8124993990016892
  0.5624993990001915  0.5624993990066197  0.8124993990016892
  0.8124993990001915  0.5624993990066197  0.8124993990016892
  0.0624993990001915  0.8124993990066197  0.8124993990016892
  0.3124993990001915  0.8124993990066197  0.8124993990016892
  0.5624993990001915  0.8124993990066197  0.8124993990016892
  0.8124993990001915  0.8124993990066197  0.8124993990016892
