generated by phonopy
   1.0
     7.5005262869999996    0.0000000000000000    0.0000000000000000
     3.7502631434999998    6.4956463061999994    0.0000000000000000
     3.7502631434999998    2.1652154355000000    6.1241540685000002
C
  54
Direct
  0.3466648826502833  0.3333324848625866  0.3333324848569655
  0.6666658182059672  0.3333324848625866  0.3333324848569655
  0.9999991515393009  0.3333324848625866  0.3333324848569655
  0.3333324848726339  0.6666658181959200  0.3333324848569655
  0.6666658182059672  0.6666658181959200  0.3333324848569655
  0.9999991515393006  0.6666658181959200  0.3333324848569655
  0.3333324848726340  0.9999991515292533  0.3333324848569655
  0.6666658182059672  0.9999991515292533  0.3333324848569655
  0.9999991515393006  0.9999991515292533  0.3333324848569655
  0.3333324848726338  0.3333324848625867  0.6666658181902988
  0.6666658182059672  0.3333324848625867  0.6666658181902988
  0.9999991515393006  0.3333324848625867  0.6666658181902988
  0.3333324848726338  0.6666658181959199  0.6666658181902988
  0.6666658182059673  0.6666658181959199  0.6666658181902988
  0.9999991515393006  0.6666658181959199  0.6666658181902988
  0.3333324848726338  0.9999991515292531  0.6666658181902988
  0.6666658182059672  0.9999991515292531  0.6666658181902988
  0.9999991515393006  0.9999991515292531  0.6666658181902988
  0.3333324848726340  0.3333324848625866  0.9999991515236322
  0.6666658182059673  0.3333324848625866  0.9999991515236322
  0.9999991515393010  0.3333324848625866  0.9999991515236322
  0.3333324848726338  0.6666658181959200  0.9999991515236322
  0.6666658182059673  0.6666658181959200  0.9999991515236322
  0.9999991515393007  0.6666658181959200  0.9999991515236322
  0.3333324848726341  0.9999991515292532  0.9999991515236322
  0.6666658182059674  0.9999991515292532  0.9999991515236322
  0.9999991515393005  0.9999991515292532  0.9999991515236322
  0.0833325320002553  0.0833325320088263  0.0833325320022523
  0.4166658653335886  0.0833325320088263  0.0833325320022523
  0.7499991986669219  0.0833325320088263  0.0833325320022523
  0.0833325320002552  0.4166658653421596  0.0833325320022523
  0.4166658653335887  0.4166658653421596  0.0833325320022523
  0.7499991986669220  0.4166658653421596  0.0833325320022523
  0.0833325320002553  0.7499991986754930  0.0833325320022523
  0.4166658653335885  0.7499991986754930  0.0833325320022523
  0.7499991986669222  0.7499991986754930  0.0833325320022523
  0.0833325320002553  0.0833325320088263  0.4166658653355856
  0.4166658653335887  0.0833325320088263  0.4166658653355856
  0.7499991986669221  0.0833325320088263  0.4166658653355856
  0.0833325320002553  0.4166658653421595  0.4166658653355856
  0.4166658653335886  0.4166658653421595  0.4166658653355856
  0.7499991986669219  0.4166658653421595  0.4166658653355856
  0.0833325320002553  0.7499991986754930  0.4166658653355856
  0.4166658653335886  0.7499991986754930  0.4166658653355856
  0.7499991986669222  0.7499991986754930  0.4166658653355856
  0.0833325320002553  0.0833325320088262  0.7499991986689191
  0.4166658653335885  0.0833325320088262  0.7499991986689191
  0.7499991986669219  0.0833325320088262  0.7499991986689191
  0.0833325320002554  0.4166658653421595  0.7499991986689191
  0.4166658653335886  0.4166658653421595  0.7499991986689191
  0.7499991986669222  0.4166658653421595  0.7499991986689191
  0.0833325320002553  0.7499991986754930  0.7499991986689191
  0.4166658653335885  0.7499991986754930  0.7499991986689191
  0.7499991986669220  0.7499991986754930  0.7499991986689191
