generated by phonopy
   1.0
     7.5005262869999996    0.0000000000000000    0.0000000000000000
     3.7502631434999998    6.4956463061999994    0.0000000000000000
     3.7502631434999998    2.1652154355000000    6.1241540685000002
C
  54
Direct
  0.3333324848726338  0.3333324848625866  0.3333324848569655
  0.6666658182059672  0.3333324848625866  0.3333324848569655
  0.9999991515393005  0.3333324848625866  0.3333324848569655
  0.3333324848726338  0.6666658181959200  0.3333324848569655
  0.6666658182059672  0.6666658181959200  0.3333324848569655
  0.9999991515393005  0.6666658181959200  0.3333324848569655
  0.3333324848726338  0.9999991515292532  0.3333324848569655
  0.6666658182059672  0.9999991515292532  0.3333324848569655
  0.9999991515393005  0.9999991515292532  0.3333324848569655
  0.3333324848726338  0.3333324848625866  0.6666658181902988
  0.6666658182059672  0.3333324848625866  0.6666658181902988
  0.9999991515393005  0.3333324848625866  0.6666658181902988
  0.3333324848726338  0.6666658181959200  0.6666658181902988
  0.6666658182059672  0.6666658181959200  0.6666658181902988
  0.9999991515393005  0.6666658181959200  0.6666658181902988
  0.3333324848726338  0.9999991515292532  0.6666658181902988
  0.6666658182059672  0.9999991515292532  0.6666658181902988
  0.9999991515393005  0.9999991515292532  0.6666658181902988
  0.3333324848726338  0.3333324848625866  0.9999991515236322
  0.6666658182059672  0.3333324848625866  0.9999991515236322
  0.9999991515393005  0.3333324848625866  0.9999991515236322
  0.3333324848726338  0.6666658181959200  0.9999991515236322
  0.6666658182059672  0.6666658181959200  0.9999991515236322
  0.9999991515393005  0.6666658181959200  0.9999991515236322
  0.3333324848726338  0.9999991515292532  0.9999991515236322
  0.6666658182059672  0.9999991515292532  0.9999991515236322
  0.9999991515393005  0.9999991515292532  0.9999991515236322
  0.0833325320002553  0.0833325320088263  0.0833325320022523
  0.4166658653335886  0.0833325320088263  0.0833325320022523
  0.7499991986669220  0.0833325320088263  0.0833325320022523
  0.0833325320002553  0.4166658653421596  0.0833325320022523
  0.4166658653335886  0.4166658653421596  0.0833325320022523
  0.7499991986669220  0.4166658653421596  0.0833325320022523
  0.0833325320002553  0.7499991986754929  0.0833325320022523
  0.4166658653335886  0.7499991986754929  0.0833325320022523
  0.7499991986669220  0.7499991986754929  0.0833325320022523
  0.0833325320002553  0.0833325320088263  0.4166658653355856
  0.4166658653335886  0.0833325320088263  0.4166658653355856
  0.7499991986669220  0.0833325320088263  0.4166658653355856
  0.0833325320002553  0.4166658653421596  0.4166658653355856
  0.4166658653335886  0.4166658653421596  0.4166658653355856
  0.7499991986669220  0.4166658653421596  0.4166658653355856
  0.0833325320002553  0.7499991986754929  0.4166658653355856
  0.4166658653335886  0.7499991986754929  0.4166658653355856
  0.7499991986669220  0.7499991986754929  0.4166658653355856
  0.0833325320002553  0.0833325320088263  0.7499991986689190
  0.4166658653335886  0.0833325320088263  0.7499991986689190
  0.7499991986669220  0.0833325320088263  0.7499991986689190
  0.0833325320002553  0.4166658653421596  0.7499991986689190
  0.4166658653335886  0.4166658653421596  0.7499991986689190
  0.7499991986669220  0.4166658653421596  0.7499991986689190
  0.0833325320002553  0.7499991986754929  0.7499991986689190
  0.4166658653335886  0.7499991986754929  0.7499991986689190
  0.7499991986669220  0.7499991986754929  0.7499991986689190
