4
q [0.375, 0.375, 0.75] , b 10 , f 1.006562 , div 0 / 20 (generated by Phonopy) Lattice="4.137640 0.000000 0.000000 -0.000000 4.137640 0.000000 0.000000 -0.000000 4.137640"
Au       0.008977303486138      0.008977290983367      0.008977334846655
Au       0.008977297444719      2.077797219019995      2.077797193279538
Au       2.077797204433587      0.008977283578713      2.077797191448209
Au       2.077797190490118      2.077797232160518      0.008977324600576
4
q [0.375, 0.375, 0.75] , b 10 , f 1.006562 , div 1 / 20 (generated by Phonopy) Lattice="4.137640 0.000000 0.000000 -0.000000 4.137640 0.000000 0.000000 -0.000000 4.137640"
Au      -0.029719049010570      0.040947997221426     -0.017626155379795
Au       0.043253151759778      2.051348164965999      2.108756324872363
Au       2.043521351452798      0.035426338456539      2.046838060082240
Au       2.116493543504606      2.045826526016881      0.035580815689661
4
q [0.375, 0.375, 0.75] , b 10 , f 1.006562 , div 2 / 20 (generated by Phonopy) Lattice="4.137640 0.000000 0.000000 -0.000000 4.137640 0.000000 0.000000 -0.000000 4.137640"
Au      -0.064627532911560      0.069789187985904     -0.041625510601697
Au       0.074173846649315      2.027488128604231      2.136684960994673
Au       2.012600657933297      0.059286375433112      2.018909424314855
Au       2.151402028429718      2.016985334877370      0.059580172072709
4
q [0.375, 0.375, 0.75] , b 10 , f 1.006562 , div 3 / 20 (generated by Phonopy) Lattice="4.137640 0.000000 0.000000 -0.000000 4.137640 0.000000 0.000000 -0.000000 4.137640"
Au      -0.092331062590891      0.092677686576381     -0.060671506716588
Au       0.098712649060394      2.008552696536429      2.158849252152563
Au       1.988061856793911      0.078221807846512      1.996745133605214
Au       2.179105559539266      1.994096835479115      0.078626169533597
4
q [0.375, 0.375, 0.75] , b 10 , f 1.006562 , div 4 / 20 (generated by Phonopy) Lattice="4.137640 0.000000 0.000000 -0.000000 4.137640 0.000000 0.000000 -0.000000 4.137640"
Au      -0.110117823541712      0.107373007277276     -0.072899788923488
Au       0.114467530041128      1.996395400784303      2.173079603099805
Au       1.972306976862046      0.090379103641201      1.982514783155670
Au       2.196892322186398      1.979401513616769      0.090854453139588
4
q [0.375, 0.375, 0.75] , b 10 , f 1.006562 , div 5 / 20 (generated by Phonopy) Lattice="4.137640 0.000000 0.000000 -0.000000 4.137640 0.000000 0.000000 -0.000000 4.137640"
Au      -0.116246723674504      0.112436669710065     -0.077113367760531
Au       0.119896292070413      1.992206282160931      2.177983047936997
Au       1.966878215556134      0.094568221999933      1.977611338816906
Au       2.203021224115550      1.974337849782548      0.095068033291864
4
q [0.375, 0.375, 0.75] , b 10 , f 1.006562 , div 6 / 20 (generated by Phonopy) Lattice="4.137640 0.000000 0.000000 -0.000000 4.137640 0.000000 0.000000 -0.000000 4.137640"
Au      -0.110117823541712      0.107373007315216     -0.072899788773418
Au       0.114467530096413      1.996395400784475      2.173079603319164
Au       1.972306977857204      0.090379102830452      1.982514783885107
Au       2.196892325703325      1.979401510673165      0.090854455407382
4
q [0.375, 0.375, 0.75] , b 10 , f 1.006562 , div 7 / 20 (generated by Phonopy) Lattice="4.137640 0.000000 0.000000 -0.000000 4.137640 0.000000 0.000000 -0.000000 4.137640"
Au      -0.092331062590891      0.092677686648546     -0.060671506431139
Au       0.098712649165552      2.008552696536756      2.158849252569809
Au       1.988061858686814      0.078221806304377      1.996745134992685
Au       2.179105566228858      1.994096829880047      0.078626173847198
4
q [0.375, 0.375, 0.75] , b 10 , f 1.006562 , div 8 / 20 (generated by Phonopy) Lattice="4.137640 0.000000 0.000000 -0.000000 4.137640 0.000000 0.000000 -0.000000 4.137640"
Au      -0.064627532911560      0.069789188085230     -0.041625510208809
Au       0.074173846794052      2.027488128604680      2.136684961568962
Au       2.012600660538654      0.059286373310545      2.018909426224545
Au       2.151402037637151      2.016985327170914      0.059580178009872
4
q [0.375, 0.375, 0.75] , b 10 , f 1.006562 , div 9 / 20 (generated by Phonopy) Lattice="4.137640 0.000000 0.000000 -0.000000 4.137640 0.000000 0.000000 -0.000000 4.137640"
Au      -0.029719049010571      0.040947997338191     -0.017626154917928
Au       0.043253151929927      2.051348164966527      2.108756325547481
Au       2.043521354515579      0.035426335961312      2.046838062327216
Au       2.116493554328593      2.045826516957399      0.035580822669215
4
q [0.375, 0.375, 0.75] , b 10 , f 1.006562 , div 10 / 20 (generated by Phonopy) Lattice="4.137640 0.000000 0.000000 -0.000000 4.137640 0.000000 0.000000 -0.000000 4.137640"
Au       0.008977303486138      0.008977291106141      0.008977335332291
Au       0.008977297623624      2.077797219020550      2.077797193989399
Au       2.077797207653985      0.008977280955076      2.077797193808716
Au       2.077797201871132      2.077797222634816      0.008977331939313
4
q [0.375, 0.375, 0.75] , b 10 , f 1.006562 , div 11 / 20 (generated by Phonopy) Lattice="4.137640 0.000000 0.000000 -0.000000 4.137640 0.000000 0.000000 -0.000000 4.137640"
Au       0.047673655982846     -0.022993415131917      0.035580825558741
Au      -0.025298556691434      2.104246273074547      2.046838062396573
Au       2.112073060634775     -0.017471773922750      2.108756325174685
Au       2.039100848856644      2.109767928778453     -0.017626159149773
4
q [0.375, 0.375, 0.75] , b 10 , f 1.006562 , div 12 / 20 (generated by Phonopy) Lattice="4.137640 0.000000 0.000000 -0.000000 4.137640 0.000000 0.000000 -0.000000 4.137640"
Au       0.082582139883835     -0.051834605896395      0.059580180780642
Au      -0.056219251580972      2.128106309436315      2.018909426274264
Au       2.142993754154276     -0.041331810899323      2.136684960942070
Au       2.004192363931532      2.138609119917964     -0.041625515532820
4
q [0.375, 0.375, 0.75] , b 10 , f 1.006562 , div 13 / 20 (generated by Phonopy) Lattice="4.137640 0.000000 0.000000 -0.000000 4.137640 0.000000 0.000000 -0.000000 4.137640"
Au       0.110285669563167     -0.074723104486872      0.078626176895534
Au      -0.080758053992050      2.147041741504117      1.996745135116373
Au       2.167532555293661     -0.060267243312723      2.158849251651711
Au       1.976488832821984      2.161497619316219     -0.060671512993709
4
q [0.375, 0.375, 0.75] , b 10 , f 1.006562 , div 14 / 20 (generated by Phonopy) Lattice="4.137640 0.000000 0.000000 -0.000000 4.137640 0.000000 0.000000 -0.000000 4.137640"
Au       0.128072430513987     -0.089418425187767      0.090854459102433
Au      -0.096512934972785      2.159199037256243      1.982514784169131
Au       2.183287435225527     -0.072424539107412      2.173079602101255
Au       1.958702070174852      2.176192941178564     -0.072899796599699
4
q [0.375, 0.375, 0.75] , b 10 , f 1.006562 , div 15 / 20 (generated by Phonopy) Lattice="4.137640 0.000000 0.000000 -0.000000 4.137640 0.000000 0.000000 -0.000000 4.137640"
Au       0.134201330646780     -0.094482087620556      0.095068037939476
Au      -0.101941697002069      2.163388155879614      1.977611339331940
Au       2.188716196531439     -0.076613657466144      2.177983046440018
Au       1.952573168245700      2.181256605012786     -0.077113376751976
4
q [0.375, 0.375, 0.75] , b 10 , f 1.006562 , div 16 / 20 (generated by Phonopy) Lattice="4.137640 0.000000 0.000000 -0.000000 4.137640 0.000000 0.000000 -0.000000 4.137640"
Au       0.128072430513987     -0.089418425225707      0.090854458952364
Au      -0.096512935028069      2.159199037256071      1.982514783949772
Au       2.183287434230369     -0.072424538296663      2.173079601371818
Au       1.958702066657925      2.176192944122168     -0.072899798867494
4
q [0.375, 0.375, 0.75] , b 10 , f 1.006562 , div 17 / 20 (generated by Phonopy) Lattice="4.137640 0.000000 0.000000 -0.000000 4.137640 0.000000 0.000000 -0.000000 4.137640"
Au       0.110285669563167     -0.074723104559037      0.078626176610085
Au      -0.080758054097208      2.147041741503790      1.996745134699128
Au       2.167532553400759     -0.060267241770588      2.158849250264240
Au       1.976488826132392      2.161497624915286     -0.060671517307310
4
q [0.375, 0.375, 0.75] , b 10 , f 1.006562 , div 18 / 20 (generated by Phonopy) Lattice="4.137640 0.000000 0.000000 -0.000000 4.137640 0.000000 0.000000 -0.000000 4.137640"
Au       0.082582139883835     -0.051834605995721      0.059580180387755
Au      -0.056219251725709      2.128106309435866      2.018909425699975
Au       2.142993751548919     -0.041331808776756      2.136684959032380
Au       2.004192354724099      2.138609127624419     -0.041625521469983
4
q [0.375, 0.375, 0.75] , b 10 , f 1.006562 , div 19 / 20 (generated by Phonopy) Lattice="4.137640 0.000000 0.000000 -0.000000 4.137640 0.000000 0.000000 -0.000000 4.137640"
Au       0.047673655982846     -0.022993415248682      0.035580825096874
Au      -0.025298556861583      2.104246273074018      2.046838061721456
Au       2.112073057571993     -0.017471771427523      2.108756322929709
Au       2.039100838032657      2.109767937837934     -0.017626166129327
