4
q [0.375, 0.375, 0.75] , b 6 , f 0.409284 , div 0 / 20 (generated by Phonopy) Lattice="4.137640 0.000000 0.000000 -0.000000 4.137640 0.000000 0.000000 -0.000000 4.137640"
Au       0.008977303486138      0.008977292374166      0.008977333988751
Au       0.008977298474676      2.077797220911576      2.077797191289796
Au       2.077797206356499      0.008977282253996      2.077797192380224
Au       2.077797197527026      2.077797221705756      0.008977331867927
4
q [0.375, 0.375, 0.75] , b 6 , f 0.409284 , div 1 / 20 (generated by Phonopy) Lattice="4.137640 0.000000 0.000000 -0.000000 4.137640 0.000000 0.000000 -0.000000 4.137640"
Au       0.018133043080250     -0.020688397968059      0.025959106742739
Au      -0.016295575308540      2.039916568958231      2.130086870849436
Au       2.103070079364805      0.046857934903900      2.025507511941564
Au       2.068641458674479      2.107462912607698     -0.008004440357209
4
q [0.375, 0.375, 0.75] , b 6 , f 0.409284 , div 2 / 20 (generated by Phonopy) Lattice="4.137640 0.000000 0.000000 -0.000000 4.137640 0.000000 0.000000 -0.000000 4.137640"
Au       0.026392555091101     -0.047450203976701      0.041278585368345
Au      -0.039094564211452      2.005743938962967      2.177258072479672
Au       2.125869067445987      0.081030565343668      1.978336309772167
Au       2.060381947200809      2.134224719548299     -0.023323918750180
4
q [0.375, 0.375, 0.75] , b 6 , f 0.409284 , div 3 / 20 (generated by Phonopy) Lattice="4.137640 0.000000 0.000000 -0.000000 4.137640 0.000000 0.000000 -0.000000 4.137640"
Au       0.032947340935666     -0.068688493619166      0.053436192560610
Au      -0.057187944350347      1.978624386044434      2.214693350303848
Au       2.143962446796768      0.108150118411138      1.940901031801462
Au       2.053827161636457      2.155463010403741     -0.035481526028800
4
q [0.375, 0.375, 0.75] , b 6 , f 0.409284 , div 4 / 20 (generated by Phonopy) Lattice="4.137640 0.000000 0.000000 -0.000000 4.137640 0.000000 0.000000 -0.000000 4.137640"
Au       0.037155772505600     -0.082324315129386      0.061241857020527
Au      -0.068804609613238      1.961212560995334      2.238728278501616
Au       2.155579111382308      0.125561943299030      1.916866103864143
Au       2.049618730062340      2.169098833289218     -0.043287190885607
4
q [0.375, 0.375, 0.75] , b 6 , f 0.409284 , div 5 / 20 (generated by Phonopy) Lattice="4.137640 0.000000 0.000000 -0.000000 4.137640 0.000000 0.000000 -0.000000 4.137640"
Au       0.038605899196970     -0.087022899291586      0.063931505925495
Au      -0.072807439866126      1.955212854566791      2.247010150839786
Au       2.159581941134912      0.131561649271999      1.908584232167903
Au       2.048168603082798      2.173797418854337     -0.045976840459150
4
q [0.375, 0.375, 0.75] , b 6 , f 0.409284 , div 6 / 20 (generated by Phonopy) Lattice="4.137640 0.000000 0.000000 -0.000000 4.137640 0.000000 0.000000 -0.000000 4.137640"
Au       0.037155772505600     -0.082324315951008      0.061241857700810
Au      -0.068804610194501      1.961212559826444      2.238728279950703
Au       2.155579111189041      0.125561943307002      1.916866104017563
Au       2.049618729230219      2.169098836807013     -0.043287193109283
4
q [0.375, 0.375, 0.75] , b 6 , f 0.409284 , div 7 / 20 (generated by Phonopy) Lattice="4.137640 0.000000 0.000000 -0.000000 4.137640 0.000000 0.000000 -0.000000 4.137640"
Au       0.032947340935666     -0.068688495181983      0.053436193854587
Au      -0.057187945455976      1.978624383821074      2.214693353060175
Au       2.143962446429152      0.108150118426302      1.940901032093284
Au       2.053827160053669      2.155463017094983     -0.035481530258483
4
q [0.375, 0.375, 0.75] , b 6 , f 0.409284 , div 8 / 20 (generated by Phonopy) Lattice="4.137640 0.000000 0.000000 -0.000000 4.137640 0.000000 0.000000 -0.000000 4.137640"
Au       0.026392555091101     -0.047450206127733      0.041278587149351
Au      -0.039094565733220      2.005743935902774      2.177258076273432
Au       2.125869066940007      0.081030565364539      1.978336310173825
Au       2.060381945022287      2.134224728758004     -0.023323924571839
4
q [0.375, 0.375, 0.75] , b 6 , f 0.409284 , div 9 / 20 (generated by Phonopy) Lattice="4.137640 0.000000 0.000000 -0.000000 4.137640 0.000000 0.000000 -0.000000 4.137640"
Au       0.018133043080250     -0.020688400496749      0.025959108836437
Au      -0.016295577097486      2.039916565360758      2.130086875309268
Au       2.103070078769990      0.046857934928435      2.025507512413742
Au       2.068641456113473      2.107462923434355     -0.008004447200980
4
q [0.375, 0.375, 0.75] , b 6 , f 0.409284 , div 10 / 20 (generated by Phonopy) Lattice="4.137640 0.000000 0.000000 -0.000000 4.137640 0.000000 0.000000 -0.000000 4.137640"
Au       0.008977303486138      0.008977289715343      0.008977336190195
Au       0.008977296593667      2.077797217128970      2.077797195979141
Au       2.077797205731074      0.008977282279794      2.077797192876701
Au       2.077797194834224      2.077797233089577      0.008977324671961
4
q [0.375, 0.375, 0.75] , b 6 , f 0.409284 , div 11 / 20 (generated by Phonopy) Lattice="4.137640 0.000000 0.000000 -0.000000 4.137640 0.000000 0.000000 -0.000000 4.137640"
Au      -0.000178436107974      0.038642980057568     -0.008004436563793
Au       0.034250170376883      2.115677869082315      2.025507516419500
Au       2.052524332722768     -0.028903370370111      2.130086873315360
Au       2.086952933686771      2.048131542187636      0.025959096897097
4
q [0.375, 0.375, 0.75] , b 6 , f 0.409284 , div 12 / 20 (generated by Phonopy) Lattice="4.137640 0.000000 0.000000 -0.000000 4.137640 0.000000 0.000000 -0.000000 4.137640"
Au      -0.008437948118825      0.065404786066209     -0.023323915189399
Au       0.057049159279795      2.149850499077579      1.978336314789265
Au       2.029725344641586     -0.063076000809879      2.177258075484758
Au       2.095212445160441      2.021369735247034      0.041278575290069
4
q [0.375, 0.375, 0.75] , b 6 , f 0.409284 , div 13 / 20 (generated by Phonopy) Lattice="4.137640 0.000000 0.000000 -0.000000 4.137640 0.000000 0.000000 -0.000000 4.137640"
Au      -0.014992733963390      0.086643075708675     -0.035481522381665
Au       0.075142539418690      2.176970051996112      1.940901036965089
Au       2.011631965290805     -0.090195553877349      2.214693353455462
Au       2.101767230724792      2.000131444391593      0.053436182568688
4
q [0.375, 0.375, 0.75] , b 6 , f 0.409284 , div 14 / 20 (generated by Phonopy) Lattice="4.137640 0.000000 0.000000 -0.000000 4.137640 0.000000 0.000000 -0.000000 4.137640"
Au      -0.019201165533324      0.100278897218895     -0.043287186841581
Au       0.086759204681581      2.194381877045212      1.916866108767321
Au       2.000015300705265     -0.107607378765241      2.238728281392782
Au       2.105975662298910      1.986495621506115      0.061241847425495
4
q [0.375, 0.375, 0.75] , b 6 , f 0.409284 , div 15 / 20 (generated by Phonopy) Lattice="4.137640 0.000000 0.000000 -0.000000 4.137640 0.000000 0.000000 -0.000000 4.137640"
Au      -0.020651292224695      0.104977481381095     -0.045976835746549
Au       0.090762034934470      2.200381583473755      1.908584236429150
Au       1.996012470952660     -0.113607084738210      2.247010153089022
Au       2.107425789278452      1.981797035940996      0.063931496999039
4
q [0.375, 0.375, 0.75] , b 6 , f 0.409284 , div 16 / 20 (generated by Phonopy) Lattice="4.137640 0.000000 0.000000 -0.000000 4.137640 0.000000 0.000000 -0.000000 4.137640"
Au      -0.019201165533324      0.100278898040517     -0.043287187521865
Au       0.086759205262845      2.194381878214102      1.916866107318234
Au       2.000015300898532     -0.107607378773213      2.238728281239362
Au       2.105975663131031      1.986495617988321      0.061241849649171
4
q [0.375, 0.375, 0.75] , b 6 , f 0.409284 , div 17 / 20 (generated by Phonopy) Lattice="4.137640 0.000000 0.000000 -0.000000 4.137640 0.000000 0.000000 -0.000000 4.137640"
Au      -0.014992733963390      0.086643077271492     -0.035481523675641
Au       0.075142540524320      2.176970054219472      1.940901034208761
Au       2.011631965658420     -0.090195553892513      2.214693353163640
Au       2.101767232307581      2.000131437700351      0.053436186798371
4
q [0.375, 0.375, 0.75] , b 6 , f 0.409284 , div 18 / 20 (generated by Phonopy) Lattice="4.137640 0.000000 0.000000 -0.000000 4.137640 0.000000 0.000000 -0.000000 4.137640"
Au      -0.008437948118825      0.065404788217242     -0.023323916970405
Au       0.057049160801564      2.149850502137772      1.978336310995505
Au       2.029725345147566     -0.063076000830750      2.177258075083099
Au       2.095212447338963      2.021369726037330      0.041278581111728
4
q [0.375, 0.375, 0.75] , b 6 , f 0.409284 , div 19 / 20 (generated by Phonopy) Lattice="4.137640 0.000000 0.000000 -0.000000 4.137640 0.000000 0.000000 -0.000000 4.137640"
Au      -0.000178436107974      0.038642982586258     -0.008004438657491
Au       0.034250172165829      2.115677872679787      2.025507511959668
Au       2.052524333317582     -0.028903370394646      2.130086872843183
Au       2.086952936247777      2.048131531360978      0.025959103740868
