4
q [0.375, 0.375, 0.75] , b 11 , f 1.006562 , div 0 / 20 (generated by Phonopy) Lattice="4.137640 0.000000 0.000000 -0.000000 4.137640 0.000000 0.000000 -0.000000 4.137640"
Au       0.008977303486138      0.008977290954942      0.008977334734218
Au       0.008977297595894      2.077797219019867      2.077797193877007
Au       2.077797204396719      0.008977284186154      2.077797193705123
Au       2.077797200070100      2.077797222447030      0.008977324072492
4
q [0.375, 0.375, 0.75] , b 11 , f 1.006562 , div 1 / 20 (generated by Phonopy) Lattice="4.137640 0.000000 0.000000 -0.000000 4.137640 0.000000 0.000000 -0.000000 4.137640"
Au       0.035426362122976     -0.025298558152165     -0.021981792677909
Au       0.040948007335749      2.039100870668302      2.051193708050410
Au       2.045826501902107      0.047673640126552      2.104400689558404
Au       2.051348149268033      2.112073080306546      0.039936460730130
4
q [0.375, 0.375, 0.75] , b 11 , f 1.006562 , div 2 / 20 (generated by Phonopy) Lattice="4.137640 0.000000 0.000000 -0.000000 4.137640 0.000000 0.000000 -0.000000 4.137640"
Au       0.059286402619012     -0.056219248325994     -0.049910424959238
Au       0.069789201247191      2.004192390506741      2.027194356750163
Au       2.016985314681877      0.082582126946267      2.128400049774720
Au       2.027488115459116      2.142993778869431      0.067865101797606
4
q [0.375, 0.375, 0.75] , b 11 , f 1.006562 , div 3 / 20 (generated by Phonopy) Lattice="4.137640 0.000000 0.000000 -0.000000 4.137640 0.000000 0.000000 -0.000000 4.137640"
Au       0.078221837967818     -0.080758046975213     -0.072074712991849
Au       0.092677702321756      1.976488863795081      2.008148363694849
Au       1.994096819089512      0.110285658733658      2.147446049762723
Au       2.008552684995197      2.167532584723175      0.090029397296950
4
q [0.375, 0.375, 0.75] , b 11 , f 1.006562 , div 4 / 20 (generated by Phonopy) Lattice="4.137640 0.000000 0.000000 -0.000000 4.137640 0.000000 0.000000 -0.000000 4.137640"
Au       0.090379135826517     -0.096512925516175     -0.086305061835435
Au       0.107373024600701      1.958702104749678      1.995920083385958
Au       1.979401500547118      0.128072420775517      2.159674334342303
Au       1.996395389740986      2.183287468578900      0.104259751556960
4
q [0.375, 0.375, 0.75] , b 11 , f 1.006562 , div 5 / 20 (generated by Phonopy) Lattice="4.137640 0.000000 0.000000 -0.000000 4.137640 0.000000 0.000000 -0.000000 4.137640"
Au       0.094568255175823     -0.101941686666595     -0.091208505796514
Au       0.112436687551031      1.952573205273534      1.991706505099562
Au       1.974337839221931      0.134201320875530      2.163887913819341
Au       1.992206270460822      2.188716232634077      0.109163198353957
4
q [0.375, 0.375, 0.75] , b 11 , f 1.006562 , div 6 / 20 (generated by Phonopy) Lattice="4.137640 0.000000 0.000000 -0.000000 4.137640 0.000000 0.000000 -0.000000 4.137640"
Au       0.090379135826517     -0.096512925460668     -0.086305061615875
Au       0.107373024562554      1.958702104749929      1.995920083236061
Au       1.979401501565062      0.128072419589350      2.159674333676890
Au       1.996395387337158      2.183287471638562      0.104259754151128
4
q [0.375, 0.375, 0.75] , b 11 , f 1.006562 , div 7 / 20 (generated by Phonopy) Lattice="4.137640 0.000000 0.000000 -0.000000 4.137640 0.000000 0.000000 -0.000000 4.137640"
Au       0.078221837967818     -0.080758046869633     -0.072074712574222
Au       0.092677702249197      1.976488863795558      2.008148363409728
Au       1.994096821025756      0.110285656477433      2.147446048497033
Au       2.008552680422845      2.167532590542998      0.090029402231351
4
q [0.375, 0.375, 0.75] , b 11 , f 1.006562 , div 8 / 20 (generated by Phonopy) Lattice="4.137640 0.000000 0.000000 -0.000000 4.137640 0.000000 0.000000 -0.000000 4.137640"
Au       0.059286402619012     -0.056219248180674     -0.049910424384423
Au       0.069789201147322      2.004192390507399      2.027194356357728
Au       2.016985317346888      0.082582123840841      2.128400048032647
Au       2.027488109165813      2.142993786879730      0.067865108589226
4
q [0.375, 0.375, 0.75] , b 11 , f 1.006562 , div 9 / 20 (generated by Phonopy) Lattice="4.137640 0.000000 0.000000 -0.000000 4.137640 0.000000 0.000000 -0.000000 4.137640"
Au       0.035426362122976     -0.025298557981332     -0.021981792002174
Au       0.040948007218345      2.039100870669075      2.051193707589074
Au       2.045826505035016      0.047673636475904      2.104400687510474
Au       2.051348141869811      2.112073089723217      0.039936468714159
4
q [0.375, 0.375, 0.75] , b 11 , f 1.006562 , div 10 / 20 (generated by Phonopy) Lattice="4.137640 0.000000 0.000000 -0.000000 4.137640 0.000000 0.000000 -0.000000 4.137640"
Au       0.008977303486138      0.008977291134567      0.008977335444728
Au       0.008977297472449      2.077797219020679      2.077797193391930
Au       2.077797207690854      0.008977280347635      2.077797191551802
Au       2.077797192291150      2.077797232348304      0.008977332467396
4
q [0.375, 0.375, 0.75] , b 11 , f 1.006562 , div 11 / 20 (generated by Phonopy) Lattice="4.137640 0.000000 0.000000 -0.000000 4.137640 0.000000 0.000000 -0.000000 4.137640"
Au      -0.017471755150700      0.043253140241674      0.039936462856855
Au      -0.022993412267405      2.116493567372244      2.104400679218527
Au       2.109767910185466     -0.029719075592763      2.051193695698521
Au       2.104246243093217      2.043521374488788     -0.021981804190242
4
q [0.375, 0.375, 0.75] , b 11 , f 1.006562 , div 12 / 20 (generated by Phonopy) Lattice="4.137640 0.000000 0.000000 -0.000000 4.137640 0.000000 0.000000 -0.000000 4.137640"
Au      -0.041331795646737      0.074173830415503      0.067865095138184
Au      -0.051834606178848      2.151402047533804      2.128400030518773
Au       2.138609097405696     -0.064627562412478      2.027194335482204
Au       2.128106276902134      2.012600675925903     -0.049910445257718
4
q [0.375, 0.375, 0.75] , b 11 , f 1.006562 , div 13 / 20 (generated by Phonopy) Lattice="4.137640 0.000000 0.000000 -0.000000 4.137640 0.000000 0.000000 -0.000000 4.137640"
Au      -0.060267230995543      0.098712629064722      0.090029383170795
Au      -0.074723107253413      2.179105574245465      2.147446023574088
Au       2.161497592998061     -0.092331094199869      2.008148335494202
Au       2.147041707366053      1.988061870072159     -0.072074740757062
4
q [0.375, 0.375, 0.75] , b 11 , f 1.006562 , div 14 / 20 (generated by Phonopy) Lattice="4.137640 0.000000 0.000000 -0.000000 4.137640 0.000000 0.000000 -0.000000 4.137640"
Au      -0.072424528854241      0.114467507605684      0.104259732014380
Au      -0.089418429532357      2.196892333290868      2.159674303882979
Au       2.176192911540454     -0.110117856241728      1.995920050914622
Au       2.159199002620264      1.972306986216434     -0.086305095017072
4
q [0.375, 0.375, 0.75] , b 11 , f 1.006562 , div 15 / 20 (generated by Phonopy) Lattice="4.137640 0.000000 0.000000 -0.000000 4.137640 0.000000 0.000000 -0.000000 4.137640"
Au      -0.076613648203548      0.119896268756104      0.109163175975460
Au      -0.094482092482687      2.203021232767012      2.163887882169375
Au       2.181256572865641     -0.116246756341741      1.991706471437584
Au       2.163388121900428      1.966878222161257     -0.091208541814068
4
q [0.375, 0.375, 0.75] , b 11 , f 1.006562 , div 16 / 20 (generated by Phonopy) Lattice="4.137640 0.000000 0.000000 -0.000000 4.137640 0.000000 0.000000 -0.000000 4.137640"
Au      -0.072424528854241      0.114467507550176      0.104259731794821
Au      -0.089418429494211      2.196892333290617      2.159674304032876
Au       2.176192910522511     -0.110117855055561      1.995920051580035
Au       2.159199005024092      1.972306983156772     -0.086305097611240
4
q [0.375, 0.375, 0.75] , b 11 , f 1.006562 , div 17 / 20 (generated by Phonopy) Lattice="4.137640 0.000000 0.000000 -0.000000 4.137640 0.000000 0.000000 -0.000000 4.137640"
Au      -0.060267230995543      0.098712628959142      0.090029382753167
Au      -0.074723107180853      2.179105574244988      2.147446023859209
Au       2.161497591061817     -0.092331091943644      2.008148336759892
Au       2.147041711938405      1.988061864252336     -0.072074745691463
4
q [0.375, 0.375, 0.75] , b 11 , f 1.006562 , div 18 / 20 (generated by Phonopy) Lattice="4.137640 0.000000 0.000000 -0.000000 4.137640 0.000000 0.000000 -0.000000 4.137640"
Au      -0.041331795646737      0.074173830270183      0.067865094563369
Au      -0.051834606078979      2.151402047533147      2.128400030911209
Au       2.138609094740684     -0.064627559307052      2.027194337224278
Au       2.128106283195437      2.012600667915604     -0.049910452049338
4
q [0.375, 0.375, 0.75] , b 11 , f 1.006562 , div 19 / 20 (generated by Phonopy) Lattice="4.137640 0.000000 0.000000 -0.000000 4.137640 0.000000 0.000000 -0.000000 4.137640"
Au      -0.017471755150700      0.043253140070841      0.039936462181120
Au      -0.022993412150002      2.116493567371471      2.104400679679863
Au       2.109767907052557     -0.029719071942115      2.051193697746450
Au       2.104246250491439      2.043521365072117     -0.021981812174271
