4
q [0.375, 0.375, 0.75] , b 2 , f 0.199131 , div 0 / 20 (generated by Phonopy) Lattice="4.137640 0.000000 0.000000 -0.000000 4.137640 0.000000 0.000000 -0.000000 4.137640"
Au       0.008977303486138      0.008977291044754      0.008977335089473
Au       0.008977297310979      2.077797218797080      2.077797193144001
Au       2.077797206865117      0.008977283088226      2.077797194433341
Au       2.077797199278242      2.077797230495284      0.008977335076969
4
q [0.375, 0.375, 0.75] , b 2 , f 0.199131 , div 1 / 20 (generated by Phonopy) Lattice="4.137640 0.000000 0.000000 -0.000000 4.137640 0.000000 0.000000 -0.000000 4.137640"
Au      -0.012086986464188     -0.012086999628527     -0.037311521995917
Au       0.030041585999304      2.098861508368741      2.124086052315369
Au       2.098861496183537      0.030041572661080      2.124086052283838
Au       2.056732908883204      2.056732940306964     -0.037311522074481
4
q [0.375, 0.375, 0.75] , b 2 , f 0.199131 , div 2 / 20 (generated by Phonopy) Lattice="4.137640 0.000000 0.000000 -0.000000 4.137640 0.000000 0.000000 -0.000000 4.137640"
Au      -0.031089356950637     -0.031089370767164     -0.079069303236357
Au       0.049043955369135      2.117863878535441      2.165843835485608
Au       2.117863866019539      0.049043942726611      2.165843834037819
Au       2.037730537692356      2.037730569302600     -0.079069304040835
4
q [0.375, 0.375, 0.75] , b 2 , f 0.199131 , div 3 / 20 (generated by Phonopy) Lattice="4.137640 0.000000 0.000000 -0.000000 4.137640 0.000000 0.000000 -0.000000 4.137640"
Au      -0.046169723552697     -0.046169737886803     -0.112208466060464
Au       0.064124321109259      2.132944244907964      2.198982999894431
Au       2.132944232016279      0.064124308905506      2.198982997073628
Au       2.022650170195166      2.022650201953403     -0.112208468179650
4
q [0.375, 0.375, 0.75] , b 2 , f 0.199131 , div 4 / 20 (generated by Phonopy) Lattice="4.137640 0.000000 0.000000 -0.000000 4.137640 0.000000 0.000000 -0.000000 4.137640"
Au      -0.055851914916265     -0.055851929582677     -0.133485118316889
Au       0.073806511949948      2.142626436154677      2.220259653235368
Au       2.142626422878908      0.073806499885086      2.220259649219196
Au       2.012967977833354      2.012968009686610     -0.133485122210886
4
q [0.375, 0.375, 0.75] , b 2 , f 0.199131 , div 5 / 20 (generated by Phonopy) Lattice="4.137640 0.000000 0.000000 -0.000000 4.137640 0.000000 0.000000 -0.000000 4.137640"
Au      -0.059188170690881     -0.059188185471798     -0.140816553039621
Au       0.077142767591923      2.145962691936559      2.227591088436248
Au       2.145962678306002      0.077142755352478      2.227591083519362
Au       2.009631721055099      2.009631752941095     -0.140816558994800
4
q [0.375, 0.375, 0.75] , b 2 , f 0.199131 , div 6 / 20 (generated by Phonopy) Lattice="4.137640 0.000000 0.000000 -0.000000 4.137640 0.000000 0.000000 -0.000000 4.137640"
Au      -0.055851914916265     -0.055851929582677     -0.133485118316889
Au       0.073806512087888      2.142626436292618      2.220259653538494
Au       2.142626422371297      0.073806499377475      2.220259648103720
Au       2.012967975918922      2.012968007772177     -0.133485126417859
4
q [0.375, 0.375, 0.75] , b 2 , f 0.199131 , div 7 / 20 (generated by Phonopy) Lattice="4.137640 0.000000 0.000000 -0.000000 4.137640 0.000000 0.000000 -0.000000 4.137640"
Au      -0.046169723552697     -0.046169737886803     -0.112208466060464
Au       0.064124321371638      2.132944245170343      2.198983000471010
Au       2.132944231050746      0.064124307939973      2.198982994951866
Au       2.022650166553698      2.022650198311935     -0.112208476181788
4
q [0.375, 0.375, 0.75] , b 2 , f 0.199131 , div 8 / 20 (generated by Phonopy) Lattice="4.137640 0.000000 0.000000 -0.000000 4.137640 0.000000 0.000000 -0.000000 4.137640"
Au      -0.031089356950637     -0.031089370767164     -0.079069303236357
Au       0.049043955730269      2.117863878896575      2.165843836279201
Au       2.117863864690597      0.049043941397669      2.165843831117464
Au       2.037730532680306      2.037730564290550     -0.079069315054833
4
q [0.375, 0.375, 0.75] , b 2 , f 0.199131 , div 9 / 20 (generated by Phonopy) Lattice="4.137640 0.000000 0.000000 -0.000000 4.137640 0.000000 0.000000 -0.000000 4.137640"
Au      -0.012086986464188     -0.012086999628527     -0.037311521995917
Au       0.030041586423843      2.098861508793280      2.124086053248293
Au       2.098861494621273      0.030041571098816      2.124086048850756
Au       2.056732902991186      2.056732934414946     -0.037311535022213
4
q [0.375, 0.375, 0.75] , b 2 , f 0.199131 , div 10 / 20 (generated by Phonopy) Lattice="4.137640 0.000000 0.000000 -0.000000 4.137640 0.000000 0.000000 -0.000000 4.137640"
Au       0.008977303486138      0.008977291044754      0.008977335089473
Au       0.008977297757365      2.077797219243466      2.077797194124936
Au       2.077797205222455      0.008977281445563      2.077797190823584
Au       2.077797193083008      2.077797224300050      0.008977321462919
4
q [0.375, 0.375, 0.75] , b 2 , f 0.199131 , div 11 / 20 (generated by Phonopy) Lattice="4.137640 0.000000 0.000000 -0.000000 4.137640 0.000000 0.000000 -0.000000 4.137640"
Au       0.030041593436463      0.030041581718036      0.055266192174863
Au      -0.012086990930961      2.056732929671805      2.031508334953568
Au       2.056732915904036     -0.012087008127291      2.031508332973087
Au       2.098861483478046      2.098861514488370      0.055266178614369
4
q [0.375, 0.375, 0.75] , b 2 , f 0.199131 , div 12 / 20 (generated by Phonopy) Lattice="4.137640 0.000000 0.000000 -0.000000 4.137640 0.000000 0.000000 -0.000000 4.137640"
Au       0.049043963922913      0.049043952856673      0.097023973415303
Au      -0.031089360300791      2.037730559505105      1.989750551783329
Au       2.037730546068034     -0.031089378192822      1.989750551219106
Au       2.117863854668894      2.117863885492734      0.097023960580723
4
q [0.375, 0.375, 0.75] , b 2 , f 0.199131 , div 13 / 20 (generated by Phonopy) Lattice="4.137640 0.000000 0.000000 -0.000000 4.137640 0.000000 0.000000 -0.000000 4.137640"
Au       0.064124330524973      0.064124319976312      0.130163136239409
Au      -0.046169726040916      2.022650193132582      1.956611387374505
Au       2.022650180071294     -0.046169744371717      1.956611388183297
Au       2.132944222166084      2.132944252841931      0.130163124719538
4
q [0.375, 0.375, 0.75] , b 2 , f 0.199131 , div 14 / 20 (generated by Phonopy) Lattice="4.137640 0.000000 0.000000 -0.000000 4.137640 0.000000 0.000000 -0.000000 4.137640"
Au       0.073806521888541      0.073806511672186      0.151439788495835
Au      -0.055851916881604      2.012968001885869      1.935334734033568
Au       2.012967989208665     -0.055851935351297      1.935334736037729
Au       2.142626414527895      2.142626445108724      0.151439778750774
4
q [0.375, 0.375, 0.75] , b 2 , f 0.199131 , div 15 / 20 (generated by Phonopy) Lattice="4.137640 0.000000 0.000000 -0.000000 4.137640 0.000000 0.000000 -0.000000 4.137640"
Au       0.077142777663157      0.077142767561307      0.158771223218567
Au      -0.059188172523579      2.009631746103987      1.928003298832689
Au       2.009631733781571     -0.059188190818689      1.928003301737562
Au       2.145962671306151      2.145962701854239      0.158771215534688
4
q [0.375, 0.375, 0.75] , b 2 , f 0.199131 , div 16 / 20 (generated by Phonopy) Lattice="4.137640 0.000000 0.000000 -0.000000 4.137640 0.000000 0.000000 -0.000000 4.137640"
Au       0.073806521888541      0.073806511672186      0.151439788495835
Au      -0.055851917019545      2.012968001747928      1.935334733730443
Au       2.012967989716275     -0.055851934843686      1.935334737153205
Au       2.142626416442328      2.142626447023157      0.151439782957747
4
q [0.375, 0.375, 0.75] , b 2 , f 0.199131 , div 17 / 20 (generated by Phonopy) Lattice="4.137640 0.000000 0.000000 -0.000000 4.137640 0.000000 0.000000 -0.000000 4.137640"
Au       0.064124330524973      0.064124319976312      0.130163136239409
Au      -0.046169726303295      2.022650192870203      1.956611386797926
Au       2.022650181036826     -0.046169743406184      1.956611390305059
Au       2.132944225807552      2.132944256483398      0.130163132721676
4
q [0.375, 0.375, 0.75] , b 2 , f 0.199131 , div 18 / 20 (generated by Phonopy) Lattice="4.137640 0.000000 0.000000 -0.000000 4.137640 0.000000 0.000000 -0.000000 4.137640"
Au       0.049043963922913      0.049043952856673      0.097023973415303
Au      -0.031089360661925      2.037730559143971      1.989750550989736
Au       2.037730547396976     -0.031089376863880      1.989750554139461
Au       2.117863859680944      2.117863890504784      0.097023971594721
4
q [0.375, 0.375, 0.75] , b 2 , f 0.199131 , div 19 / 20 (generated by Phonopy) Lattice="4.137640 0.000000 0.000000 -0.000000 4.137640 0.000000 0.000000 -0.000000 4.137640"
Au       0.030041593436463      0.030041581718036      0.055266192174863
Au      -0.012086991355499      2.056732929247266      2.031508334020643
Au       2.056732917466300     -0.012087006565026      2.031508336406169
Au       2.098861489370064      2.098861520380388      0.055266191562101
