4
q [0.375, 0.375, 0.75] , b 12 , f 1.038518 , div 0 / 20 (generated by Phonopy) Lattice="4.137640 0.000000 0.000000 -0.000000 4.137640 0.000000 0.000000 -0.000000 4.137640"
Au       0.008977303486138      0.008977291044754      0.008977335089473
Au       0.008977297187359      2.077797218673460      2.077797193950111
Au       2.077797207320028      0.008977283543136      2.077797191466925
Au       2.077797200993919      2.077797232210961      0.008977323889252
4
q [0.375, 0.375, 0.75] , b 12 , f 1.038518 , div 1 / 20 (generated by Phonopy) Lattice="4.137640 0.000000 0.000000 -0.000000 4.137640 0.000000 0.000000 -0.000000 4.137640"
Au      -0.023753859847746     -0.023753873199802      0.038766740829316
Au       0.041708464098449      2.110528385325555      2.048007790758837
Au       2.110528373732017      0.041708450157618      2.048007789107250
Au       2.045066036675403      2.045066068664471      0.038766729836590
4
q [0.375, 0.375, 0.75] , b 12 , f 1.038518 , div 2 / 20 (generated by Phonopy) Lattice="4.137640 0.000000 0.000000 -0.000000 4.137640 0.000000 0.000000 -0.000000 4.137640"
Au      -0.053281068863085     -0.053281083036671      0.065640151980349
Au       0.071235676374781      2.140055597368243      2.021134381876004
Au       2.140055585399227      0.071235662007500      2.021134381119211
Au       2.015538826300656      2.015538858986180      0.065640141603620
4
q [0.375, 0.375, 0.75] , b 12 , f 1.038518 , div 3 / 20 (generated by Phonopy) Lattice="4.137640 0.000000 0.000000 -0.000000 4.137640 0.000000 0.000000 -0.000000 4.137640"
Au      -0.076713994613294     -0.076714009438850      0.086967011821043
Au       0.094668604750561      2.163488525558603      1.999807523801113
Au       2.163488513115490      0.094668589868733      1.999807523914719
Au       1.992105898949331      1.992105932187565      0.086967002408515
4
q [0.375, 0.375, 0.75] , b 12 , f 1.038518 , div 4 / 20 (generated by Phonopy) Lattice="4.137640 0.000000 0.000000 -0.000000 4.137640 0.000000 0.000000 -0.000000 4.137640"
Au      -0.091758859059151     -0.091758874303297      0.100659698717222
Au       0.109713470929557      2.178533391618552      1.986114837995493
Au       2.178533378649132      0.109713455495450      1.986114838869902
Au       1.977061032817379      1.977061066410475      0.100659690522715
4
q [0.375, 0.375, 0.75] , b 12 , f 1.038518 , div 5 / 20 (generated by Phonopy) Lattice="4.137640 0.000000 0.000000 -0.000000 4.137640 0.000000 0.000000 -0.000000 4.137640"
Au      -0.096942966044959     -0.096942981433342      0.105377877072928
Au       0.114897578586422      2.183717499234395      1.981396659948349
Au       2.183717485737977      0.114897562616367      1.981396661399493
Au       1.971876924225543      1.971876957940916      0.105377870231035
4
q [0.375, 0.375, 0.75] , b 12 , f 1.038518 , div 6 / 20 (generated by Phonopy) Lattice="4.137640 0.000000 0.000000 -0.000000 4.137640 0.000000 0.000000 -0.000000 4.137640"
Au      -0.091758859059151     -0.091758874303297      0.100659698717222
Au       0.109713471143899      2.178533391832894      1.986114837800415
Au       2.178533377860371      0.109713454706689      1.986114839587772
Au       1.977061029842600      1.977061063435696      0.100659693230132
4
q [0.375, 0.375, 0.75] , b 12 , f 1.038518 , div 7 / 20 (generated by Phonopy) Lattice="4.137640 0.000000 0.000000 -0.000000 4.137640 0.000000 0.000000 -0.000000 4.137640"
Au      -0.076713994613294     -0.076714009438850      0.086967011821043
Au       0.094668605158264      2.163488525966306      1.999807523430053
Au       2.163488511615178      0.094668588368420      1.999807525280188
Au       1.992105893290965      1.992105926529199      0.086967007558328
4
q [0.375, 0.375, 0.75] , b 12 , f 1.038518 , div 8 / 20 (generated by Phonopy) Lattice="4.137640 0.000000 0.000000 -0.000000 4.137640 0.000000 0.000000 -0.000000 4.137640"
Au      -0.053281068863085     -0.053281083036671      0.065640151980349
Au       0.071235676935936      2.140055597929398      2.021134381365283
Au       2.140055583334224      0.071235659942497      2.021134382998618
Au       2.015538818512583      2.015538851198107      0.065640148691729
4
q [0.375, 0.375, 0.75] , b 12 , f 1.038518 , div 9 / 20 (generated by Phonopy) Lattice="4.137640 0.000000 0.000000 -0.000000 4.137640 0.000000 0.000000 -0.000000 4.137640"
Au      -0.023753859847746     -0.023753873199802      0.038766740829316
Au       0.041708464758126      2.110528385985232      2.048007790158449
Au       2.110528371304461      0.041708447730062      2.048007791316626
Au       2.045066027519974      2.045066059509043      0.038766738169162
4
q [0.375, 0.375, 0.75] , b 12 , f 1.038518 , div 10 / 20 (generated by Phonopy) Lattice="4.137640 0.000000 0.000000 -0.000000 4.137640 0.000000 0.000000 -0.000000 4.137640"
Au       0.008977303486138      0.008977291044754      0.008977335089473
Au       0.008977297880985      2.077797219367086      2.077797193318826
Au       2.077797204767545      0.008977280990653      2.077797193790000
Au       2.077797191367331      2.077797222584373      0.008977332650636
4
q [0.375, 0.375, 0.75] , b 12 , f 1.038518 , div 11 / 20 (generated by Phonopy) Lattice="4.137640 0.000000 0.000000 -0.000000 4.137640 0.000000 0.000000 -0.000000 4.137640"
Au       0.041708466820022      0.041708455289311     -0.020812070650370
Au      -0.023753869030105      2.045066052714991      2.107586596510100
Au       2.045066038355556     -0.023753885623829      2.107586596149674
Au       2.110528355685847      2.110528386130862     -0.020812073296702
4
q [0.375, 0.375, 0.75] , b 12 , f 1.038518 , div 12 / 20 (generated by Phonopy) Lattice="4.137640 0.000000 0.000000 -0.000000 4.137640 0.000000 0.000000 -0.000000 4.137640"
Au       0.071235675835360      0.071235665126180     -0.047685481801403
Au      -0.053281081306437      2.015538840672303      2.134460005392933
Au       2.015538826688346     -0.053281097473711      2.134460004137714
Au       2.140055566060594      2.140055595809153     -0.047685485063732
4
q [0.375, 0.375, 0.75] , b 12 , f 1.038518 , div 13 / 20 (generated by Phonopy) Lattice="4.137640 0.000000 0.000000 -0.000000 4.137640 0.000000 0.000000 -0.000000 4.137640"
Au       0.094668601585570      0.094668591528359     -0.069012341642098
Au      -0.076714009682218      1.992105912481943      2.155786863467824
Au       1.992105898972083     -0.076714025334943      2.155786861342206
Au       2.163488493411919      2.163488522607769     -0.069012345868627
4
q [0.375, 0.375, 0.75] , b 12 , f 1.038518 , div 14 / 20 (generated by Phonopy) Lattice="4.137640 0.000000 0.000000 -0.000000 4.137640 0.000000 0.000000 -0.000000 4.137640"
Au       0.109713466031426      0.109713456392806     -0.082705028538276
Au      -0.091758875861213      1.977061046421994      2.169479549273444
Au       1.977061033438441     -0.091758890961661      2.169479546387023
Au       2.178533359543871      2.178533388384858     -0.082705033982827
4
q [0.375, 0.375, 0.75] , b 12 , f 1.038518 , div 15 / 20 (generated by Phonopy) Lattice="4.137640 0.000000 0.000000 -0.000000 4.137640 0.000000 0.000000 -0.000000 4.137640"
Au       0.114897573017235      0.114897563522850     -0.087423206893982
Au      -0.096942983518078      1.971876938806150      2.174197727320588
Au       1.971876926349596     -0.096942998082578      2.174197723857431
Au       2.183717468135707      2.183717496854417     -0.087423213691147
4
q [0.375, 0.375, 0.75] , b 12 , f 1.038518 , div 16 / 20 (generated by Phonopy) Lattice="4.137640 0.000000 0.000000 -0.000000 4.137640 0.000000 0.000000 -0.000000 4.137640"
Au       0.109713466031426      0.109713456392806     -0.082705028538276
Au      -0.091758876075556      1.977061046207652      2.169479549468522
Au       1.977061034227201     -0.091758890172900      2.169479545669153
Au       2.178533362518650      2.178533391359637     -0.082705036690244
4
q [0.375, 0.375, 0.75] , b 12 , f 1.038518 , div 17 / 20 (generated by Phonopy) Lattice="4.137640 0.000000 0.000000 -0.000000 4.137640 0.000000 0.000000 -0.000000 4.137640"
Au       0.094668601585570      0.094668591528359     -0.069012341642098
Au      -0.076714010089921      1.992105912074240      2.155786863838884
Au       1.992105900472394     -0.076714023834631      2.155786859976736
Au       2.163488499070285      2.163488528266135     -0.069012351018440
4
q [0.375, 0.375, 0.75] , b 12 , f 1.038518 , div 18 / 20 (generated by Phonopy) Lattice="4.137640 0.000000 0.000000 -0.000000 4.137640 0.000000 0.000000 -0.000000 4.137640"
Au       0.071235675835360      0.071235665126180     -0.047685481801403
Au      -0.053281081867592      2.015538840111148      2.134460005903653
Au       2.015538828753348     -0.053281095408708      2.134460002258307
Au       2.140055573848667      2.140055603597226     -0.047685492151841
4
q [0.375, 0.375, 0.75] , b 12 , f 1.038518 , div 19 / 20 (generated by Phonopy) Lattice="4.137640 0.000000 0.000000 -0.000000 4.137640 0.000000 0.000000 -0.000000 4.137640"
Au       0.041708466820022      0.041708455289311     -0.020812070650370
Au      -0.023753869689783      2.045066052055314      2.107586597110488
Au       2.045066040783112     -0.023753883196273      2.107586593940299
Au       2.110528364841276      2.110528395286291     -0.020812081629274
