4
q [0.375, 0.375, 0.75] , b 3 , f 0.249307 , div 0 / 20 (generated by Phonopy) Lattice="4.137640 0.000000 0.000000 -0.000000 4.137640 0.000000 0.000000 -0.000000 4.137640"
Au       0.008977303486138      0.008977285395088      0.008977332690357
Au       0.008977301513966      2.077797225857393      2.077797198227842
Au       2.077797199691919      0.008977273663708      2.077797186277839
Au       2.077797201004285      2.077797231945713      0.008977332249614
4
q [0.375, 0.375, 0.75] , b 3 , f 0.249307 , div 1 / 20 (generated by Phonopy) Lattice="4.137640 0.000000 0.000000 -0.000000 4.137640 0.000000 0.000000 -0.000000 4.137640"
Au       0.041778940628134      0.001486111938691      0.019725353605215
Au       0.056813282295306      2.113412602542860      2.113234596637080
Au       2.029961154288170     -0.026638039507649      2.042359788804415
Au       2.044995496366979      2.085288472184681     -0.001770687818182
4
q [0.375, 0.375, 0.75] , b 3 , f 0.249307 , div 2 / 20 (generated by Phonopy) Lattice="4.137640 0.000000 0.000000 -0.000000 4.137640 0.000000 0.000000 -0.000000 4.137640"
Au       0.071369724984226     -0.005271772712691      0.029421283581904
Au       0.099966743595323      2.145541697342169      2.145203135133517
Au       1.986807634923631     -0.058767076837175      2.010391251324200
Au       2.015404650650315      2.092046417189324     -0.011466617185441
4
q [0.375, 0.375, 0.75] , b 3 , f 0.249307 , div 3 / 20 (generated by Phonopy) Lattice="4.137640 0.000000 0.000000 -0.000000 4.137640 0.000000 0.000000 -0.000000 4.137640"
Au       0.094853104410524     -0.010634859724429      0.037116017438788
Au       0.134213523954125      2.171039490599795      2.170573510431217
Au       1.952560808741953     -0.084264824294891      1.985020877023655
Au       1.991921222004583      2.097409552217217     -0.019161350730183
4
q [0.375, 0.375, 0.75] , b 3 , f 0.249307 , div 4 / 20 (generated by Phonopy) Lattice="4.137640 0.000000 0.000000 -0.000000 4.137640 0.000000 0.000000 -0.000000 4.137640"
Au       0.109930362110455     -0.014078172772990      0.042056341013594
Au       0.156201309898845      2.187410080658111      2.186862293430242
Au       1.930572993701467     -0.100635384706383      1.968732094905109
Au       1.976843932044298      2.100852896244671     -0.024101674320687
4
q [0.375, 0.375, 0.75] , b 3 , f 0.249307 , div 5 / 20 (generated by Phonopy) Lattice="4.137640 0.000000 0.000000 -0.000000 4.137640 0.000000 0.000000 -0.000000 4.137640"
Au       0.115125631050918     -0.015264656386208      0.043758661013560
Au       0.163777783743300      2.193051000101600      2.192475024560024
Au       1.922996510336451     -0.106276293558172      1.963119364452945
Au       1.971648650960427      2.102039390767088     -0.025803994662658
4
q [0.375, 0.375, 0.75] , b 3 , f 0.249307 , div 6 / 20 (generated by Phonopy) Lattice="4.137640 0.000000 0.000000 -0.000000 4.137640 0.000000 0.000000 -0.000000 4.137640"
Au       0.109930362110455     -0.014078169281304      0.042056342496329
Au       0.156201307439197      2.187410076432538      2.186862290591381
Au       1.930572997627137     -0.100635379389321      1.968732098830011
Au       1.976843929063112      2.100852893433824     -0.024101676780259
4
q [0.375, 0.375, 0.75] , b 3 , f 0.249307 , div 7 / 20 (generated by Phonopy) Lattice="4.137640 0.000000 0.000000 -0.000000 4.137640 0.000000 0.000000 -0.000000 4.137640"
Au       0.094853104410524     -0.010634853082848      0.037116020259118
Au       0.134213519275597      2.171039482562278      2.170573505031382
Au       1.952560816209021     -0.084264814181240      1.985020884489261
Au       1.991921216334031      2.097409546870668     -0.019161355408565
4
q [0.375, 0.375, 0.75] , b 3 , f 0.249307 , div 8 / 20 (generated by Phonopy) Lattice="4.137640 0.000000 0.000000 -0.000000 4.137640 0.000000 0.000000 -0.000000 4.137640"
Au       0.071369724984226     -0.005271763571339      0.029421287463754
Au       0.099966737155881      2.145541686279476      2.145203127701282
Au       1.986807645201168     -0.058767062916928      2.010391261599725
Au       2.015404642845469      2.092046409830431     -0.011466623624682
4
q [0.375, 0.375, 0.75] , b 3 , f 0.249307 , div 9 / 20 (generated by Phonopy) Lattice="4.137640 0.000000 0.000000 -0.000000 4.137640 0.000000 0.000000 -0.000000 4.137640"
Au       0.041778940628134      0.001486122684995      0.019725358168604
Au       0.056813274725288      2.113412589537885      2.113234587899964
Au       2.029961166370139     -0.026638023143416      2.042359800884019
Au       2.044995487191833      2.085288463533783     -0.001770695387964
4
q [0.375, 0.375, 0.75] , b 3 , f 0.249307 , div 10 / 20 (generated by Phonopy) Lattice="4.137640 0.000000 0.000000 -0.000000 4.137640 0.000000 0.000000 -0.000000 4.137640"
Au       0.008977303486138      0.008977296694421      0.008977337488588
Au       0.008977293554378      2.077797212183153      2.077797189041095
Au       2.077797212395653      0.008977290870081      2.077797198979086
Au       2.077797191356965      2.077797222849620      0.008977324290274
4
q [0.375, 0.375, 0.75] , b 3 , f 0.249307 , div 11 / 20 (generated by Phonopy) Lattice="4.137640 0.000000 0.000000 -0.000000 4.137640 0.000000 0.000000 -0.000000 4.137640"
Au      -0.023824333655858      0.016468470150818     -0.001770683426269
Au      -0.038858687226962      2.042181835497686      2.042359790631857
Au       2.125633257799403      0.044592604041438      2.113234596452509
Au       2.110598895994271      2.070305982610653      0.019725344358070
4
q [0.375, 0.375, 0.75] , b 3 , f 0.249307 , div 12 / 20 (generated by Phonopy) Lattice="4.137640 0.000000 0.000000 -0.000000 4.137640 0.000000 0.000000 -0.000000 4.137640"
Au      -0.053415118011951      0.023226354802200     -0.011466613402958
Au      -0.082012148526979      2.010052740698377      2.010391252135419
Au       2.168786777163942      0.076721641370964      2.145203133932724
Au       2.140189741710935      2.063548037606009      0.029421273725329
4
q [0.375, 0.375, 0.75] , b 3 , f 0.249307 , div 13 / 20 (generated by Phonopy) Lattice="4.137640 0.000000 0.000000 -0.000000 4.137640 0.000000 0.000000 -0.000000 4.137640"
Au      -0.076898497438248      0.028589441813938     -0.019161347259843
Au      -0.116258928885782      1.984554947440751      1.985020876837720
Au       2.203033603345620      0.102219388828681      2.170573508233269
Au       2.163673170356667      2.058184902578116      0.037116007270071
4
q [0.375, 0.375, 0.75] , b 3 , f 0.249307 , div 14 / 20 (generated by Phonopy) Lattice="4.137640 0.000000 0.000000 -0.000000 4.137640 0.000000 0.000000 -0.000000 4.137640"
Au      -0.091975755138179      0.032032754862499     -0.024101670834648
Au      -0.138246714830501      1.968184357382435      1.968732093838694
Au       2.225021418386106      0.118589949240172      2.186862290351815
Au       2.178750460316953      2.054741558550663      0.042056330860575
4
q [0.375, 0.375, 0.75] , b 3 , f 0.249307 , div 15 / 20 (generated by Phonopy) Lattice="4.137640 0.000000 0.000000 -0.000000 4.137640 0.000000 0.000000 -0.000000 4.137640"
Au      -0.097171024078643      0.033219238475717     -0.025803990834614
Au      -0.145823188674956      1.962543437938946      1.963119362708913
Au       2.232597901751122      0.124230858091961      2.192475020803980
Au       2.183945741400823      2.053555064028245      0.043758651202546
4
q [0.375, 0.375, 0.75] , b 3 , f 0.249307 , div 16 / 20 (generated by Phonopy) Lattice="4.137640 0.000000 0.000000 -0.000000 4.137640 0.000000 0.000000 -0.000000 4.137640"
Au      -0.091975755138179      0.032032751370813     -0.024101672317383
Au      -0.138246712370853      1.968184361608008      1.968732096677555
Au       2.225021414460436      0.118589943923110      2.186862286426914
Au       2.178750463298138      2.054741561361510      0.042056333320147
4
q [0.375, 0.375, 0.75] , b 3 , f 0.249307 , div 17 / 20 (generated by Phonopy) Lattice="4.137640 0.000000 0.000000 -0.000000 4.137640 0.000000 0.000000 -0.000000 4.137640"
Au      -0.076898497438248      0.028589435172357     -0.019161350080172
Au      -0.116258924207253      1.984554955478268      1.985020882237554
Au       2.203033595878552      0.102219378715029      2.170573500767664
Au       2.163673176027219      2.058184907924665      0.037116011948453
4
q [0.375, 0.375, 0.75] , b 3 , f 0.249307 , div 18 / 20 (generated by Phonopy) Lattice="4.137640 0.000000 0.000000 -0.000000 4.137640 0.000000 0.000000 -0.000000 4.137640"
Au      -0.053415118011951      0.023226345660848     -0.011466617284809
Au      -0.082012142087537      2.010052751761070      2.010391259567655
Au       2.168786766886404      0.076721627450717      2.145203123657200
Au       2.140189749515781      2.063548044964903      0.029421280164570
4
q [0.375, 0.375, 0.75] , b 3 , f 0.249307 , div 19 / 20 (generated by Phonopy) Lattice="4.137640 0.000000 0.000000 -0.000000 4.137640 0.000000 0.000000 -0.000000 4.137640"
Au      -0.023824333655858      0.016468459404514     -0.001770687989658
Au      -0.038858679656944      2.042181848502661      2.042359799368973
Au       2.125633245717434      0.044592587677205      2.113234584372905
Au       2.110598905169417      2.070305991261551      0.019725351927852
