4
q [0.375, 0.375, 0.75] , b 8 , f 0.488847 , div 0 / 20 (generated by Phonopy) Lattice="4.137640 0.000000 0.000000 -0.000000 4.137640 0.000000 0.000000 -0.000000 4.137640"
Au       0.008977303486138      0.008977291044754      0.008977335089473
Au       0.008977297270125      2.077797218756226      2.077797194082517
Au       2.077797207015455      0.008977283238563      2.077797190979682
Au       2.077797192516017      2.077797223733058      0.008977334488252
4
q [0.375, 0.375, 0.75] , b 8 , f 0.488847 , div 1 / 20 (generated by Phonopy) Lattice="4.137640 0.000000 0.000000 -0.000000 4.137640 0.000000 0.000000 -0.000000 4.137640"
Au       0.033897225526081      0.033897212338075     -0.033308147997646
Au       0.033897219750939      2.102717140913196      2.035511713299247
Au       2.102717128697141      0.033897204266093      2.035511710063567
Au       2.102717113348723      2.102717145122616     -0.033308148373068
4
q [0.375, 0.375, 0.75] , b 8 , f 0.488847 , div 2 / 20 (generated by Phonopy) Lattice="4.137640 0.000000 0.000000 -0.000000 4.137640 0.000000 0.000000 -0.000000 4.137640"
Au       0.056377811969449      0.056377798107904     -0.071454433379912
Au       0.056377806617867      2.125197727487981      1.997365429951454
Au       2.125197714722205      0.056377789701036      1.997365426801185
Au       2.125197699061744      2.125197731337980     -0.071454434160329
4
q [0.375, 0.375, 0.75] , b 8 , f 0.488847 , div 3 / 20 (generated by Phonopy) Lattice="4.137640 0.000000 0.000000 -0.000000 4.137640 0.000000 0.000000 -0.000000 4.137640"
Au       0.074218506383708      0.074218491987640     -0.101727496863312
Au       0.074218501396917      2.143038422035184      1.967092368034004
Au       2.143038408699063      0.074218483209570      1.967092365179041
Au       2.143038393294038      2.143038425968935     -0.101727498639875
4
q [0.375, 0.375, 0.75] , b 8 , f 0.488847 , div 4 / 20 (generated by Phonopy) Lattice="4.137640 0.000000 0.000000 -0.000000 4.137640 0.000000 0.000000 -0.000000 4.137640"
Au       0.085672937296163      0.085672922556910     -0.121164000069254
Au       0.085672932579686      2.154492853069097      1.947655865772203
Au       2.154492839197834      0.085672913407660      1.947655863393535
Au       2.154492824590722      2.154492857521575     -0.121164003335603
4
q [0.375, 0.375, 0.75] , b 8 , f 0.488847 , div 5 / 20 (generated by Phonopy) Lattice="4.137640 0.000000 0.000000 -0.000000 4.137640 0.000000 0.000000 -0.000000 4.137640"
Au       0.089619865201391      0.089619850343884     -0.127861362641860
Au       0.089619860634288      2.158439781072408      1.940958503429510
Au       2.158439766753589      0.089619840859807      1.940958501661502
Au       2.158439753408761      2.158439786427810     -0.127861367745805
4
q [0.375, 0.375, 0.75] , b 8 , f 0.488847 , div 6 / 20 (generated by Phonopy) Lattice="4.137640 0.000000 0.000000 -0.000000 4.137640 0.000000 0.000000 -0.000000 4.137640"
Au       0.085672937296163      0.085672922556910     -0.121164000069254
Au       0.085672932742876      2.154492853232287      1.947655865495294
Au       2.154492838597310      0.085672912807135      1.947655864412537
Au       2.154492826855575      2.154492859786428     -0.121164007178728
4
q [0.375, 0.375, 0.75] , b 8 , f 0.488847 , div 7 / 20 (generated by Phonopy) Lattice="4.137640 0.000000 0.000000 -0.000000 4.137640 0.000000 0.000000 -0.000000 4.137640"
Au       0.074218506383708      0.074218491987640     -0.101727496863312
Au       0.074218501707323      2.143038422345589      1.967092367507292
Au       2.143038407556798      0.074218482067306      1.967092367117298
Au       2.143038397602044      2.143038430276941     -0.101727505949934
4
q [0.375, 0.375, 0.75] , b 8 , f 0.488847 , div 8 / 20 (generated by Phonopy) Lattice="4.137640 0.000000 0.000000 -0.000000 4.137640 0.000000 0.000000 -0.000000 4.137640"
Au       0.056377811969449      0.056377798107904     -0.071454433379912
Au       0.056377807045104      2.125197727915217      1.997365429226496
Au       2.125197713150012      0.056377788128844      1.997365429468967
Au       2.125197704991205      2.125197737267441     -0.071454444221763
4
q [0.375, 0.375, 0.75] , b 8 , f 0.488847 , div 9 / 20 (generated by Phonopy) Lattice="4.137640 0.000000 0.000000 -0.000000 4.137640 0.000000 0.000000 -0.000000 4.137640"
Au       0.033897225526081      0.033897212338075     -0.033308147997646
Au       0.033897220253185      2.102717141415442      2.035511712447008
Au       2.102717126848917      0.033897202417870      2.035511713199733
Au       2.102717120319223      2.102717152093116     -0.033308160200992
4
q [0.375, 0.375, 0.75] , b 8 , f 0.488847 , div 10 / 20 (generated by Phonopy) Lattice="4.137640 0.000000 0.000000 -0.000000 4.137640 0.000000 0.000000 -0.000000 4.137640"
Au       0.008977303486138      0.008977291044754      0.008977335089473
Au       0.008977297798218      2.077797219284319      2.077797193186420
Au       2.077797205072118      0.008977281295226      2.077797194277243
Au       2.077797199845233      2.077797231062275      0.008977322051636
4
q [0.375, 0.375, 0.75] , b 8 , f 0.488847 , div 11 / 20 (generated by Phonopy) Lattice="4.137640 0.000000 0.000000 -0.000000 4.137640 0.000000 0.000000 -0.000000 4.137640"
Au      -0.015942618553806     -0.015942630248566      0.051262818176591
Au      -0.015942624682595      2.052877297127350      2.120082673969690
Au       2.052877283390432     -0.015942639732304      2.120082675193358
Au       2.052877279012526      2.052877309672717      0.051262804912956
4
q [0.375, 0.375, 0.75] , b 8 , f 0.488847 , div 12 / 20 (generated by Phonopy) Lattice="4.137640 0.000000 0.000000 -0.000000 4.137640 0.000000 0.000000 -0.000000 4.137640"
Au      -0.038423204997173     -0.038423216018395      0.089409103558858
Au      -0.038423211549524      2.030396710552565      2.158228957317483
Au       2.030396697365368     -0.038423225167247      2.158228958455740
Au       2.030396693299505      2.030396723457354      0.089409090700218
4
q [0.375, 0.375, 0.75] , b 8 , f 0.488847 , div 13 / 20 (generated by Phonopy) Lattice="4.137640 0.000000 0.000000 -0.000000 4.137640 0.000000 0.000000 -0.000000 4.137640"
Au      -0.056263899411432     -0.056263909898131      0.119682167042258
Au      -0.056263906328574      2.012556016005362      2.188502019234932
Au       2.012556003388510     -0.056263918675781      2.188502020077884
Au       2.012555999067211      2.012556028826399      0.119682155179763
4
q [0.375, 0.375, 0.75] , b 8 , f 0.488847 , div 14 / 20 (generated by Phonopy) Lattice="4.137640 0.000000 0.000000 -0.000000 4.137640 0.000000 0.000000 -0.000000 4.137640"
Au      -0.067718330323888     -0.067718340467401      0.139118670248200
Au      -0.067718337511342      2.001101584971448      2.207938521496733
Au       2.001101572889739     -0.067718348873871      2.207938521863390
Au       2.001101567770528      2.001101597273759      0.139118659875491
4
q [0.375, 0.375, 0.75] , b 8 , f 0.488847 , div 15 / 20 (generated by Phonopy) Lattice="4.137640 0.000000 0.000000 -0.000000 4.137640 0.000000 0.000000 -0.000000 4.137640"
Au      -0.071665258229115     -0.071665268254375      0.145816032820806
Au      -0.071665265565945      1.997154656968138      2.214635883839427
Au       1.997154645333984     -0.071665276326018      2.214635883595423
Au       1.997154638952489      1.997154668367523      0.145816024285693
4
q [0.375, 0.375, 0.75] , b 8 , f 0.488847 , div 16 / 20 (generated by Phonopy) Lattice="4.137640 0.000000 0.000000 -0.000000 4.137640 0.000000 0.000000 -0.000000 4.137640"
Au      -0.067718330323888     -0.067718340467401      0.139118670248200
Au      -0.067718337674532      2.001101584808259      2.207938521773643
Au       2.001101573490263     -0.067718348273346      2.207938520844388
Au       2.001101565505675      2.001101595008906      0.139118663718617
4
q [0.375, 0.375, 0.75] , b 8 , f 0.488847 , div 17 / 20 (generated by Phonopy) Lattice="4.137640 0.000000 0.000000 -0.000000 4.137640 0.000000 0.000000 -0.000000 4.137640"
Au      -0.056263899411432     -0.056263909898131      0.119682167042258
Au      -0.056263906638979      2.012556015694957      2.188502019761645
Au       2.012556004530775     -0.056263917533517      2.188502018139626
Au       2.012555994759206      2.012556024518393      0.119682162489822
4
q [0.375, 0.375, 0.75] , b 8 , f 0.488847 , div 18 / 20 (generated by Phonopy) Lattice="4.137640 0.000000 0.000000 -0.000000 4.137640 0.000000 0.000000 -0.000000 4.137640"
Au      -0.038423204997174     -0.038423216018395      0.089409103558858
Au      -0.038423211976760      2.030396710125329      2.158228958042440
Au       2.030396698937560     -0.038423223595055      2.158228955787958
Au       2.030396687370045      2.030396717527893      0.089409100761651
4
q [0.375, 0.375, 0.75] , b 8 , f 0.488847 , div 19 / 20 (generated by Phonopy) Lattice="4.137640 0.000000 0.000000 -0.000000 4.137640 0.000000 0.000000 -0.000000 4.137640"
Au      -0.015942618553806     -0.015942630248566      0.051262818176591
Au      -0.015942625184841      2.052877296625104      2.120082674821929
Au       2.052877285238655     -0.015942637884081      2.120082672057192
Au       2.052877272042027      2.052877302702218      0.051262816740880
