4
q [0.375, 0.375, 0.75] , b 4 , f 0.249307 , div 0 / 20 (generated by Phonopy) Lattice="4.137640 0.000000 0.000000 -0.000000 4.137640 0.000000 0.000000 -0.000000 4.137640"
Au       0.008977303486138      0.008977285841427      0.008977332879894
Au       0.008977301745744      2.077797225317242      2.077797198096893
Au       2.077797202203678      0.008977274343381      2.077797187633072
Au       2.077797190943190      2.077797225566457      0.008977325268263
4
q [0.375, 0.375, 0.75] , b 4 , f 0.249307 , div 1 / 20 (generated by Phonopy) Lattice="4.137640 0.000000 0.000000 -0.000000 4.137640 0.000000 0.000000 -0.000000 4.137640"
Au      -0.026638043198672     -0.038858727863615     -0.026460063258493
Au       0.001486094659021      2.110598894991079      2.088545218291454
Au       2.085288408857188     -0.023824395292189      2.067049167060665
Au       2.113412537043355      2.125633240747302      0.044414721908488
4
q [0.375, 0.375, 0.75] , b 4 , f 0.249307 , div 2 / 20 (generated by Phonopy) Lattice="4.137640 0.000000 0.000000 -0.000000 4.137640 0.000000 0.000000 -0.000000 4.137640"
Au      -0.058767111603261     -0.082012218744765     -0.058428599939708
Au      -0.005271821296003      2.140189708078179      2.098241146946699
Au       2.092046324385044     -0.053415208185550      2.057353238116732
Au       2.145541605433206      2.168786733648381      0.076383259552532
4
q [0.375, 0.375, 0.75] , b 4 , f 0.249307 , div 3 / 20 (generated by Phonopy) Lattice="4.137640 0.000000 0.000000 -0.000000 4.137640 0.000000 0.000000 -0.000000 4.137640"
Au      -0.084264884655805     -0.116259022446524     -0.083798974055502
Au      -0.010634934220481      2.163673109622257      2.105935879010343
Au       2.097409436930212     -0.076898609399383      2.049658505881814
Au       2.171039379042360      2.203033539716472      0.101753634997897
4
q [0.375, 0.375, 0.75] , b 4 , f 0.249307 , div 4 / 20 (generated by Phonopy) Lattice="4.137640 0.000000 0.000000 -0.000000 4.137640 0.000000 0.000000 -0.000000 4.137640"
Au      -0.100635462676491     -0.138246823211052     -0.100087756621630
Au      -0.014078265254360      2.178750380661701      2.110876200495648
Au       2.100852767669769     -0.091975880004401      2.044718184359416
Au       2.187409958136519      2.225021342962103      0.118042419130192
4
q [0.375, 0.375, 0.75] , b 4 , f 0.249307 , div 5 / 20 (generated by Phonopy) Lattice="4.137640 0.000000 0.000000 -0.000000 4.137640 0.000000 0.000000 -0.000000 4.137640"
Au      -0.106276379428129     -0.145823301901501     -0.105700488109898
Au      -0.015264757164945      2.183945652857645      2.112578518314388
Au       2.102039259399831     -0.097171151704263      2.043015866641396
Au       2.193050876373414      2.232597824005556      0.123655152267914
4
q [0.375, 0.375, 0.75] , b 4 , f 0.249307 , div 6 / 20 (generated by Phonopy) Lattice="4.137640 0.000000 0.000000 -0.000000 4.137640 0.000000 0.000000 -0.000000 4.137640"
Au      -0.100635462676491     -0.138246819995219     -0.100087755256035
Au      -0.014078267857254      2.178750376769960      2.110876197737718
Au       2.100852770043087     -0.091975875107400      2.044718187446738
Au       2.187409961373431      2.225021344093852      0.118042420985332
4
q [0.375, 0.375, 0.75] , b 4 , f 0.249307 , div 7 / 20 (generated by Phonopy) Lattice="4.137640 0.000000 0.000000 -0.000000 4.137640 0.000000 0.000000 -0.000000 4.137640"
Au      -0.084264884655805     -0.116259016329646     -0.083798971457986
Au      -0.010634939171481      2.163673102219726      2.105935873764449
Au       2.097409441444530     -0.076898600084734      2.049658511754248
Au       2.171039385199334      2.203033541869188      0.101753638526585
4
q [0.375, 0.375, 0.75] , b 4 , f 0.249307 , div 8 / 20 (generated by Phonopy) Lattice="4.137640 0.000000 0.000000 -0.000000 4.137640 0.000000 0.000000 -0.000000 4.137640"
Au      -0.058767111603261     -0.082012210325604     -0.058428596364534
Au      -0.005271828110470      2.140189697889468      2.098241139726345
Au       2.092046330598470     -0.053415195365036      2.057353246199444
Au       2.145541613907553      2.168786736611340      0.076383264409353
4
q [0.375, 0.375, 0.75] , b 4 , f 0.249307 , div 9 / 20 (generated by Phonopy) Lattice="4.137640 0.000000 0.000000 -0.000000 4.137640 0.000000 0.000000 -0.000000 4.137640"
Au      -0.026638043198672     -0.038858717966299     -0.026460059055624
Au       0.001486086648135      2.110598883013532      2.088545209803419
Au       2.085288416161509     -0.023824380220771      2.067049176562463
Au       2.113412547005549      2.125633244230469      0.044414727618024
4
q [0.375, 0.375, 0.75] , b 4 , f 0.249307 , div 10 / 20 (generated by Phonopy) Lattice="4.137640 0.000000 0.000000 -0.000000 4.137640 0.000000 0.000000 -0.000000 4.137640"
Au       0.008977303486138      0.008977296248082      0.008977337299052
Au       0.008977293322600      2.077797212723304      2.077797189172044
Au       2.077797209883895      0.008977290190408      2.077797197623853
Au       2.077797201418060      2.077797229228876      0.008977331271625
4
q [0.375, 0.375, 0.75] , b 4 , f 0.249307 , div 11 / 20 (generated by Phonopy) Lattice="4.137640 0.000000 0.000000 -0.000000 4.137640 0.000000 0.000000 -0.000000 4.137640"
Au       0.044592650170948      0.056813309953124      0.044414733437439
Au       0.016468500409323      2.044995543049467      2.067049168977483
Au       2.070306003230385      0.041778959825978      2.088545218196260
Au       2.042181855317895      2.029961214048031     -0.026460065368600
4
q [0.375, 0.375, 0.75] , b 4 , f 0.249307 , div 12 / 20 (generated by Phonopy) Lattice="4.137640 0.000000 0.000000 -0.000000 4.137640 0.000000 0.000000 -0.000000 4.137640"
Au       0.076721718575537      0.099966800834274      0.076383270118654
Au       0.023226416364347      2.015404729962367      2.057353240322238
Au       2.063548087702529      0.071369772719339      2.098241147140193
Au       2.010052786928044      1.986807721146953     -0.058428603012644
4
q [0.375, 0.375, 0.75] , b 4 , f 0.249307 , div 13 / 20 (generated by Phonopy) Lattice="4.137640 0.000000 0.000000 -0.000000 4.137640 0.000000 0.000000 -0.000000 4.137640"
Au       0.102219491628081      0.134213604536033      0.101753644234448
Au       0.028589529288824      1.991921328418289      2.049658508258593
Au       2.058184975157361      0.094853173933172      2.105935879375111
Au       1.984555013318890      1.952560915078861     -0.083798978458009
4
q [0.375, 0.375, 0.75] , b 4 , f 0.249307 , div 14 / 20 (generated by Phonopy) Lattice="4.137640 0.000000 0.000000 -0.000000 4.137640 0.000000 0.000000 -0.000000 4.137640"
Au       0.118590069648766      0.156201405300561      0.118042426800576
Au       0.032032860322703      1.976844057378845      2.044718186773288
Au       2.054741644417804      0.109930444538190      2.110876200897509
Au       1.968184434224731      1.930573111833231     -0.100087762590303
4
q [0.375, 0.375, 0.75] , b 4 , f 0.249307 , div 15 / 20 (generated by Phonopy) Lattice="4.137640 0.000000 0.000000 -0.000000 4.137640 0.000000 0.000000 -0.000000 4.137640"
Au       0.124230986400404      0.163777883991010      0.123655158288844
Au       0.033219352233289      1.971648785182901      2.043015868954549
Au       2.053555152687741      0.115125716238052      2.112578518615529
Au       1.962543515987836      1.922996630789777     -0.105700495728026
4
q [0.375, 0.375, 0.75] , b 4 , f 0.249307 , div 16 / 20 (generated by Phonopy) Lattice="4.137640 0.000000 0.000000 -0.000000 4.137640 0.000000 0.000000 -0.000000 4.137640"
Au       0.118590069648766      0.156201402084727      0.118042425434981
Au       0.032032862925598      1.976844061270586      2.044718189531218
Au       2.054741642044486      0.109930439641189      2.110876197810187
Au       1.968184430987818      1.930573110701481     -0.100087764445444
4
q [0.375, 0.375, 0.75] , b 4 , f 0.249307 , div 17 / 20 (generated by Phonopy) Lattice="4.137640 0.000000 0.000000 -0.000000 4.137640 0.000000 0.000000 -0.000000 4.137640"
Au       0.102219491628081      0.134213598419154      0.101753641636932
Au       0.028589534239824      1.991921335820820      2.049658513504488
Au       2.058184970643043      0.094853164618524      2.105935873502677
Au       1.984555007161916      1.952560912926146     -0.083798981986696
4
q [0.375, 0.375, 0.75] , b 4 , f 0.249307 , div 18 / 20 (generated by Phonopy) Lattice="4.137640 0.000000 0.000000 -0.000000 4.137640 0.000000 0.000000 -0.000000 4.137640"
Au       0.076721718575537      0.099966792415113      0.076383266543480
Au       0.023226423178813      2.015404740151078      2.057353247542592
Au       2.063548081489103      0.071369759898825      2.098241139057481
Au       2.010052778453697      1.986807718183994     -0.058428607869465
4
q [0.375, 0.375, 0.75] , b 4 , f 0.249307 , div 19 / 20 (generated by Phonopy) Lattice="4.137640 0.000000 0.000000 -0.000000 4.137640 0.000000 0.000000 -0.000000 4.137640"
Au       0.044592650170948      0.056813300055808      0.044414729234570
Au       0.016468508420209      2.044995555027014      2.067049177465518
Au       2.070305995926064      0.041778944754560      2.088545208694462
Au       2.042181845355701      2.029961210564865     -0.026460071078136
