4
q [0.375, 0.375, 0.75] , b 5 , f 0.254337 , div 0 / 20 (generated by Phonopy) Lattice="4.137640 0.000000 0.000000 -0.000000 4.137640 0.000000 0.000000 -0.000000 4.137640"
Au       0.008977303486138      0.008977291044754      0.008977335089473
Au       0.008977297121747      2.077797219432698      2.077797193634468
Au       2.077797207561473      0.008977280749205      2.077797192628461
Au       2.077797190456729      2.077797233121566      0.008977328269945
4
q [0.375, 0.375, 0.75] , b 5 , f 0.254337 , div 1 / 20 (generated by Phonopy) Lattice="4.137640 0.000000 0.000000 -0.000000 4.137640 0.000000 0.000000 -0.000000 4.137640"
Au       0.047900762234460     -0.029946146593606      0.008977343418203
Au       0.047900768043049      2.038873818460903      2.077797224113624
Au       2.116720598593024     -0.029946180326073      2.077797162802610
Au       2.116720593710818      2.038873808491041      0.008977320150270
4
q [0.375, 0.375, 0.75] , b 5 , f 0.254337 , div 2 / 20 (generated by Phonopy) Lattice="4.137640 0.000000 0.000000 -0.000000 4.137640 0.000000 0.000000 -0.000000 4.137640"
Au       0.083014121644813     -0.065059486960387      0.008977350931659
Au       0.083014138475176      2.003760511131137      2.077797251609268
Au       2.151833896766633     -0.065059541687040      2.077797135896321
Au       2.151833903619395      2.003760479298502      0.008977312825406
4
q [0.375, 0.375, 0.75] , b 5 , f 0.254337 , div 3 / 20 (generated by Phonopy) Lattice="4.137640 0.000000 0.000000 -0.000000 4.137640 0.000000 0.000000 -0.000000 4.137640"
Au       0.110880241448951     -0.092925591651459      0.008977356894372
Au       0.110880267070995      1.975894432613637      2.077797273429935
Au       2.179699967808333     -0.092925662874512      2.077797114543370
Au       2.179699984759792      1.975894382854267      0.008977307012360
4
q [0.375, 0.375, 0.75] , b 5 , f 0.254337 , div 4 / 20 (generated by Phonopy) Lattice="4.137640 0.000000 0.000000 -0.000000 4.137640 0.000000 0.000000 -0.000000 4.137640"
Au       0.128771391685770     -0.110816732185094      0.008977360722669
Au       0.128771423008812      1.958003308828079      2.077797287439665
Au       2.197591086530230     -0.110816813791975      2.077797100833931
Au       2.197591110955583      1.958003246832806      0.008977303280155
4
q [0.375, 0.375, 0.75] , b 5 , f 0.254337 , div 5 / 20 (generated by Phonopy) Lattice="4.137640 0.000000 0.000000 -0.000000 4.137640 0.000000 0.000000 -0.000000 4.137640"
Au       0.134936261915118     -0.116981599070953      0.008977362041810
Au       0.134936295290420      1.951838447625385      2.077797292267089
Au       2.203755945577069     -0.116981683932650      2.077797096109981
Au       2.203755974119918      1.951838380282775      0.008977301994125
4
q [0.375, 0.375, 0.75] , b 5 , f 0.254337 , div 6 / 20 (generated by Phonopy) Lattice="4.137640 0.000000 0.000000 -0.000000 4.137640 0.000000 0.000000 -0.000000 4.137640"
Au       0.128771391685770     -0.110816732185094      0.008977360722669
Au       0.128771423263704      1.958003308573187      2.077797287439665
Au       2.197591085592248     -0.110816812853991      2.077797100833932
Au       2.197591114493145      1.958003243295242      0.008977303280155
4
q [0.375, 0.375, 0.75] , b 5 , f 0.254337 , div 7 / 20 (generated by Phonopy) Lattice="4.137640 0.000000 0.000000 -0.000000 4.137640 0.000000 0.000000 -0.000000 4.137640"
Au       0.110880241448951     -0.092925591651459      0.008977356894372
Au       0.110880267555830      1.975894432128802      2.077797273429935
Au       2.179699966024186     -0.092925661090361      2.077797114543371
Au       2.179699991488635      1.975894376125420      0.008977307012359
4
q [0.375, 0.375, 0.75] , b 5 , f 0.254337 , div 8 / 20 (generated by Phonopy) Lattice="4.137640 0.000000 0.000000 -0.000000 4.137640 0.000000 0.000000 -0.000000 4.137640"
Au       0.083014121644813     -0.065059486960386      0.008977350931659
Au       0.083014139142494      2.003760510463820      2.077797251609268
Au       2.151833894310965     -0.065059539231367      2.077797135896323
Au       2.151833912880853      2.003760470037039      0.008977312825404
4
q [0.375, 0.375, 0.75] , b 5 , f 0.254337 , div 9 / 20 (generated by Phonopy) Lattice="4.137640 0.000000 0.000000 -0.000000 4.137640 0.000000 0.000000 -0.000000 4.137640"
Au       0.047900762234460     -0.029946146593606      0.008977343418203
Au       0.047900768827528      2.038873817676425      2.077797224113624
Au       2.116720595706213     -0.029946177439256      2.077797162802613
Au       2.116720604598315      2.038873797603538      0.008977320150268
4
q [0.375, 0.375, 0.75] , b 5 , f 0.254337 , div 10 / 20 (generated by Phonopy) Lattice="4.137640 0.000000 0.000000 -0.000000 4.137640 0.000000 0.000000 -0.000000 4.137640"
Au       0.008977303486138      0.008977291044754      0.008977335089473
Au       0.008977297946597      2.077797218607848      2.077797193634468
Au       2.077797204526100      0.008977283784584      2.077797192628464
Au       2.077797201904521      2.077797221673768      0.008977328269943
4
q [0.375, 0.375, 0.75] , b 5 , f 0.254337 , div 11 / 20 (generated by Phonopy) Lattice="4.137640 0.000000 0.000000 -0.000000 4.137640 0.000000 0.000000 -0.000000 4.137640"
Au      -0.029946155262185      0.047900728683115      0.008977326760743
Au      -0.029946172974705      2.116720619579643      2.077797163155312
Au       2.038873813494549      0.047900744859862      2.077797222454315
Au       2.038873798650432      2.116720646304293      0.008977336389618
4
q [0.375, 0.375, 0.75] , b 5 , f 0.254337 , div 12 / 20 (generated by Phonopy) Lattice="4.137640 0.000000 0.000000 -0.000000 4.137640 0.000000 0.000000 -0.000000 4.137640"
Au      -0.065059514672538      0.083014069049895      0.008977319247286
Au      -0.065059543406833      2.151833926909409      2.077797135659669
Au       2.003760515320940      0.083014106220829      2.077797249360604
Au       2.003760488741855      2.151833975496831      0.008977343714482
4
q [0.375, 0.375, 0.75] , b 5 , f 0.254337 , div 13 / 20 (generated by Phonopy) Lattice="4.137640 0.000000 0.000000 -0.000000 4.137640 0.000000 0.000000 -0.000000 4.137640"
Au      -0.092925634476675      0.110880173740968      0.008977313284574
Au      -0.092925672002651      2.179700005426909      2.077797113839002
Au       1.975894444279239      0.110880227408301      2.077797270713555
Au       1.975894407601458      2.179700071941067      0.008977349527528
4
q [0.375, 0.375, 0.75] , b 5 , f 0.254337 , div 14 / 20 (generated by Phonopy) Lattice="4.137640 0.000000 0.000000 -0.000000 4.137640 0.000000 0.000000 -0.000000 4.137640"
Au      -0.110816784713495      0.128771314274603      0.008977309456277
Au      -0.110816827940468      2.197591129212467      2.077797099829272
Au       1.958003325557343      0.128771378325764      2.077797284422994
Au       1.958003281405667      2.197591207962528      0.008977353259733
4
q [0.375, 0.375, 0.75] , b 5 , f 0.254337 , div 15 / 20 (generated by Phonopy) Lattice="4.137640 0.000000 0.000000 -0.000000 4.137640 0.000000 0.000000 -0.000000 4.137640"
Au      -0.116981654942843      0.134936181160462      0.008977308137135
Au      -0.116981700222076      2.203755990415161      2.077797095001848
Au       1.951838466510504      0.134936248466439      2.077797289146944
Au       1.951838418241332      2.203756074512559      0.008977354545763
4
q [0.375, 0.375, 0.75] , b 5 , f 0.254337 , div 16 / 20 (generated by Phonopy) Lattice="4.137640 0.000000 0.000000 -0.000000 4.137640 0.000000 0.000000 -0.000000 4.137640"
Au      -0.110816784713495      0.128771314274603      0.008977309456277
Au      -0.110816828195361      2.197591129467359      2.077797099829271
Au       1.958003326495325      0.128771377387780      2.077797284422993
Au       1.958003277868105      2.197591211500092      0.008977353259734
4
q [0.375, 0.375, 0.75] , b 5 , f 0.254337 , div 17 / 20 (generated by Phonopy) Lattice="4.137640 0.000000 0.000000 -0.000000 4.137640 0.000000 0.000000 -0.000000 4.137640"
Au      -0.092925634476675      0.110880173740968      0.008977313284574
Au      -0.092925672487486      2.179700005911744      2.077797113839002
Au       1.975894446063387      0.110880225624150      2.077797270713554
Au       1.975894400872615      2.179700078669914      0.008977349527529
4
q [0.375, 0.375, 0.75] , b 5 , f 0.254337 , div 18 / 20 (generated by Phonopy) Lattice="4.137640 0.000000 0.000000 -0.000000 4.137640 0.000000 0.000000 -0.000000 4.137640"
Au      -0.065059514672538      0.083014069049895      0.008977319247286
Au      -0.065059544074151      2.151833927576726      2.077797135659668
Au       2.003760517776608      0.083014103765156      2.077797249360601
Au       2.003760479480397      2.151833984758294      0.008977343714484
4
q [0.375, 0.375, 0.75] , b 5 , f 0.254337 , div 19 / 20 (generated by Phonopy) Lattice="4.137640 0.000000 0.000000 -0.000000 4.137640 0.000000 0.000000 -0.000000 4.137640"
Au      -0.029946155262185      0.047900728683115      0.008977326760743
Au      -0.029946173759184      2.116720620364121      2.077797163155312
Au       2.038873816381360      0.047900741973045      2.077797222454312
Au       2.038873787762935      2.116720657191796      0.008977336389620
