4
q [0.375, 0.375, 0.75] , b 7 , f 0.409284 , div 0 / 20 (generated by Phonopy) Lattice="4.137640 0.000000 0.000000 -0.000000 4.137640 0.000000 0.000000 -0.000000 4.137640"
Au       0.008977303486138      0.008977290723436      0.008977335355517
Au       0.008977297685908      2.077797218563146      2.077797193887326
Au       2.077797207363096      0.008977282270012      2.077797191533523
Au       2.077797201751178      2.077797231435497      0.008977320314421
4
q [0.375, 0.375, 0.75] , b 7 , f 0.409284 , div 1 / 20 (generated by Phonopy) Lattice="4.137640 0.000000 0.000000 -0.000000 4.137640 0.000000 0.000000 -0.000000 4.137640"
Au       0.046857953266538      0.034250163625911     -0.043312345286759
Au      -0.020688394106352      2.086952958453273      2.094778966511374
Au       2.107462898068161     -0.000178457083062      2.060815419118655
Au       2.039916550720319      2.052524359052728      0.061267002462642
4
q [0.375, 0.375, 0.75] , b 7 , f 0.409284 , div 2 / 20 (generated by Phonopy) Lattice="4.137640 0.000000 0.000000 -0.000000 4.137640 0.000000 0.000000 -0.000000 4.137640"
Au       0.081030581116425      0.057049151673685     -0.090483547690183
Au      -0.047450201307810      2.095212470775910      2.110098444887262
Au       2.134224704144850     -0.008437968876776      2.045495941013901
Au       2.005743921197091      2.029725371109990      0.108438206977299
4
q [0.375, 0.375, 0.75] , b 7 , f 0.409284 , div 3 / 20 (generated by Phonopy) Lattice="4.137640 0.000000 0.000000 -0.000000 4.137640 0.000000 0.000000 -0.000000 4.137640"
Au       0.108150132127156      0.075142531066751     -0.127918825902416
Au      -0.068688491769113      2.101767256917512      2.122256051734476
Au       2.155462993553909     -0.014992754549358      2.033338334473234
Au       1.978624368253938      2.011631991397007      0.145873487699390
4
q [0.375, 0.375, 0.75] , b 7 , f 0.409284 , div 4 / 20 (generated by Phonopy) Lattice="4.137640 0.000000 0.000000 -0.000000 4.137640 0.000000 0.000000 -0.000000 4.137640"
Au       0.125561955692776      0.086759195766130     -0.151953754065124
Au      -0.082324313644036      2.105975688740657      2.130061715787782
Au       2.169098814552118     -0.019201186009298      2.025532670731880
Au       1.961212542685971      2.000015325984076      0.169908418524898
4
q [0.375, 0.375, 0.75] , b 7 , f 0.409284 , div 5 / 20 (generated by Phonopy) Lattice="4.137640 0.000000 0.000000 -0.000000 4.137640 0.000000 0.000000 -0.000000 4.137640"
Au       0.131561661207374      0.090762025692984     -0.160235625948550
Au      -0.087022897681106      2.107425815616629      2.132751364264383
Au       2.173797397973818     -0.020651312663431      2.022843022542100
Au       1.955212835295106      1.996012495019880      0.178190292963413
4
q [0.375, 0.375, 0.75] , b 7 , f 0.409284 , div 6 / 20 (generated by Phonopy) Lattice="4.137640 0.000000 0.000000 -0.000000 4.137640 0.000000 0.000000 -0.000000 4.137640"
Au       0.125561955692776      0.086759195964716     -0.151953754229549
Au      -0.082324313737814      2.105975689023178      2.130061715631507
Au       2.169098813736739     -0.019201186011225      2.025532671408590
Au       1.961212539243180      2.000015323488559      0.169908423441682
4
q [0.375, 0.375, 0.75] , b 7 , f 0.409284 , div 7 / 20 (generated by Phonopy) Lattice="4.137640 0.000000 0.000000 -0.000000 4.137640 0.000000 0.000000 -0.000000 4.137640"
Au       0.108150132127156      0.075142531444484     -0.127918826215170
Au      -0.068688491947489      2.101767257454897      2.122256051437224
Au       2.155462992002968     -0.014992754553023      2.033338335760413
Au       1.978624361705359      2.011631986650253      0.145873497051668
4
q [0.375, 0.375, 0.75] , b 7 , f 0.409284 , div 8 / 20 (generated by Phonopy) Lattice="4.137640 0.000000 0.000000 -0.000000 4.137640 0.000000 0.000000 -0.000000 4.137640"
Au       0.081030581116425      0.057049152193589     -0.090483548120652
Au      -0.047450201553324      2.095212471515558      2.110098444478131
Au       2.134224702010162     -0.008437968881821      2.045495942785551
Au       2.005743912183746      2.029725364576644      0.108438219849606
4
q [0.375, 0.375, 0.75] , b 7 , f 0.409284 , div 9 / 20 (generated by Phonopy) Lattice="4.137640 0.000000 0.000000 -0.000000 4.137640 0.000000 0.000000 -0.000000 4.137640"
Au       0.046857953266538      0.034250164237095     -0.043312345792805
Au      -0.020688394394971      2.086952959322780      2.094778966030411
Au       2.107462895558685     -0.000178457088993      2.060815421201355
Au       2.039916540124497      2.052524351372319      0.061267017594946
4
q [0.375, 0.375, 0.75] , b 7 , f 0.409284 , div 10 / 20 (generated by Phonopy) Lattice="4.137640 0.000000 0.000000 -0.000000 4.137640 0.000000 0.000000 -0.000000 4.137640"
Au       0.008977303486138      0.008977291366073      0.008977334823429
Au       0.008977297382436      2.077797219477400      2.077797193381611
Au       2.077797204724477      0.008977282263777      2.077797193723402
Au       2.077797190610072      2.077797223359837      0.008977336225467
4
q [0.375, 0.375, 0.75] , b 7 , f 0.409284 , div 11 / 20 (generated by Phonopy) Lattice="4.137640 0.000000 0.000000 -0.000000 4.137640 0.000000 0.000000 -0.000000 4.137640"
Au      -0.028903346294262     -0.016295581536402      0.061267015465705
Au       0.038642989174696      2.068641479587273      2.060815420757563
Au       2.048131514019412      0.018133021616851      2.094778966138269
Au       2.115677841640931      2.103070095742605     -0.043312345922754
4
q [0.375, 0.375, 0.75] , b 7 , f 0.409284 , div 12 / 20 (generated by Phonopy) Lattice="4.137640 0.000000 0.000000 -0.000000 4.137640 0.000000 0.000000 -0.000000 4.137640"
Au      -0.063075974144150     -0.039094569584176      0.108438217869129
Au       0.065404796376154      2.060381967264636      2.045495942381675
Au       2.021369707942723      0.026392533410565      2.110098444243024
Au       2.149850471164159      2.125869083685343     -0.090483550437411
4
q [0.375, 0.375, 0.75] , b 7 , f 0.409284 , div 13 / 20 (generated by Phonopy) Lattice="4.137640 0.000000 0.000000 -0.000000 4.137640 0.000000 0.000000 -0.000000 4.137640"
Au      -0.090195525154880     -0.057187948977242      0.145873496081362
Au       0.086643086837456      2.053827181123034      2.033338335534461
Au       2.000131418533663      0.032947319083147      2.122256050783691
Au       2.176970024107312      2.143962463398327     -0.127918831159501
4
q [0.375, 0.375, 0.75] , b 7 , f 0.409284 , div 14 / 20 (generated by Phonopy) Lattice="4.137640 0.000000 0.000000 -0.000000 4.137640 0.000000 0.000000 -0.000000 4.137640"
Au      -0.107607348720500     -0.068804613676621      0.169908424244070
Au       0.100278908712380      2.049618749299889      2.025532671481155
Au       1.986495597535455      0.037155750543087      2.130061714525045
Au       2.194381849675279      2.155579128811258     -0.151953761985010
4
q [0.375, 0.375, 0.75] , b 7 , f 0.409284 , div 15 / 20 (generated by Phonopy) Lattice="4.137640 0.000000 0.000000 -0.000000 4.137640 0.000000 0.000000 -0.000000 4.137640"
Au      -0.113607054235098     -0.072807443603475      0.178190296127495
Au       0.104977492749450      2.048168622423917      2.022843023004554
Au       1.981797014113754      0.038605877197220      2.132751362714825
Au       2.200381557066144      2.159581959775454     -0.160235636423525
4
q [0.375, 0.375, 0.75] , b 7 , f 0.409284 , div 16 / 20 (generated by Phonopy) Lattice="4.137640 0.000000 0.000000 -0.000000 4.137640 0.000000 0.000000 -0.000000 4.137640"
Au      -0.107607348720500     -0.068804613875207      0.169908424408494
Au       0.100278908806158      2.049618749017368      2.025532671637429
Au       1.986495598350833      0.037155750545014      2.130061713848335
Au       2.194381853118070      2.155579131306774     -0.151953766901794
4
q [0.375, 0.375, 0.75] , b 7 , f 0.409284 , div 17 / 20 (generated by Phonopy) Lattice="4.137640 0.000000 0.000000 -0.000000 4.137640 0.000000 0.000000 -0.000000 4.137640"
Au      -0.090195525154880     -0.057187949354975      0.145873496394116
Au       0.086643087015832      2.053827180585649      2.033338335831712
Au       2.000131420084605      0.032947319086812      2.122256049496512
Au       2.176970030655891      2.143962468145080     -0.127918840511780
4
q [0.375, 0.375, 0.75] , b 7 , f 0.409284 , div 18 / 20 (generated by Phonopy) Lattice="4.137640 0.000000 0.000000 -0.000000 4.137640 0.000000 0.000000 -0.000000 4.137640"
Au      -0.063075974144150     -0.039094570104080      0.108438218299598
Au       0.065404796621668      2.060381966524988      2.045495942790806
Au       2.021369710077411      0.026392533415610      2.110098442471374
Au       2.149850480177504      2.125869090218690     -0.090483563309718
4
q [0.375, 0.375, 0.75] , b 7 , f 0.409284 , div 19 / 20 (generated by Phonopy) Lattice="4.137640 0.000000 0.000000 -0.000000 4.137640 0.000000 0.000000 -0.000000 4.137640"
Au      -0.028903346294262     -0.016295582147586      0.061267015971751
Au       0.038642989463315      2.068641478717765      2.060815421238526
Au       2.048131516528888      0.018133021622782      2.094778964055570
Au       2.115677852236753      2.103070103423014     -0.043312361055058
