4
q [0.375, 0.375, 0.75] , b 9 , f 0.989714 , div 0 / 20 (generated by Phonopy) Lattice="4.137640 0.000000 0.000000 -0.000000 4.137640 0.000000 0.000000 -0.000000 4.137640"
Au       0.008977303486138      0.008977291044754      0.008977335089473
Au       0.008977297217354      2.077797218703455      2.077797193261050
Au       2.077797207209650      0.008977283432758      2.077797194002609
Au       2.077797191783617      2.077797223000660      0.008977323087406
4
q [0.375, 0.375, 0.75] , b 9 , f 0.989714 , div 1 / 20 (generated by Phonopy) Lattice="4.137640 0.000000 0.000000 -0.000000 4.137640 0.000000 0.000000 -0.000000 4.137640"
Au       0.038877652574032      0.038877647835177      0.044219429177427
Au       0.038877642144081      2.107697573674605      2.113039288818550
Au       2.107697561049471      0.038877627428897      2.113039283256573
Au       2.107697547700053      2.107697571517548      0.044219408660461
4
q [0.375, 0.375, 0.75] , b 9 , f 0.989714 , div 2 / 20 (generated by Phonopy) Lattice="4.137640 0.000000 0.000000 -0.000000 4.137640 0.000000 0.000000 -0.000000 4.137640"
Au       0.065851147165221      0.065851149374918      0.076011781549945
Au       0.065851133012440      2.134671073604168      2.144831642553316
Au       2.134671059813313      0.065851117312624      2.144831631133774
Au       2.134671048881769      2.134671066024034      0.076011753858881
4
q [0.375, 0.375, 0.75] , b 9 , f 0.989714 , div 3 / 20 (generated by Phonopy) Lattice="4.137640 0.000000 0.000000 -0.000000 4.137640 0.000000 0.000000 -0.000000 4.137640"
Au       0.087257433673731      0.087257441397830      0.101242335246459
Au       0.087257416600873      2.156077364383613      2.170062197371437
Au       2.156077349506753      0.087257399958766      2.170062181113678
Au       2.156077341097664      2.156077352942437      0.101242302424348
4
q [0.375, 0.375, 0.75] , b 9 , f 0.989714 , div 4 / 20 (generated by Phonopy) Lattice="4.137640 0.000000 0.000000 -0.000000 4.137640 0.000000 0.000000 -0.000000 4.137640"
Au       0.101001115629743      0.101001126894305      0.117441347879551
Au       0.101001096725397      2.169821049125051      2.186261210775701
Au       2.169821033348208      0.101001079275577      2.186261191172674
Au       2.169821027319239      2.169821035762813      0.117441312471708
4
q [0.375, 0.375, 0.75] , b 9 , f 0.989714 , div 5 / 20 (generated by Phonopy) Lattice="4.137640 0.000000 0.000000 -0.000000 4.137640 0.000000 0.000000 -0.000000 4.137640"
Au       0.105736865685537      0.105736878170060      0.123023147227537
Au       0.105736846217574      2.174556800208108      2.191843010468937
Au       2.174556783805399      0.105736828173683      2.191842989341048
Au       2.174556779781233      2.174556787052834      0.123023112032383
4
q [0.375, 0.375, 0.75] , b 9 , f 0.989714 , div 6 / 20 (generated by Phonopy) Lattice="4.137640 0.000000 0.000000 -0.000000 4.137640 0.000000 0.000000 -0.000000 4.137640"
Au       0.101001115629743      0.101001126894305      0.117441347879551
Au       0.101001096921202      2.169821049320856      2.186261211006486
Au       2.169821032627664      0.101001078555034      2.186261190323405
Au       2.169821030036740      2.169821038480313      0.117441315674692
4
q [0.375, 0.375, 0.75] , b 9 , f 0.989714 , div 7 / 20 (generated by Phonopy) Lattice="4.137640 0.000000 0.000000 -0.000000 4.137640 0.000000 0.000000 -0.000000 4.137640"
Au       0.087257433673731      0.087257441397830      0.101242335246459
Au       0.087257416973315      2.156077364756055      2.170062197810416
Au       2.156077348136198      0.087257398588212      2.170062179498272
Au       2.156077346266657      2.156077358111429      0.101242308516787
4
q [0.375, 0.375, 0.75] , b 9 , f 0.989714 , div 8 / 20 (generated by Phonopy) Lattice="4.137640 0.000000 0.000000 -0.000000 4.137640 0.000000 0.000000 -0.000000 4.137640"
Au       0.065851147165221      0.065851149374918      0.076011781549945
Au       0.065851133525062      2.134671074116790      2.144831643157520
Au       2.134671057926905      0.065851115426218      2.144831628910358
Au       2.134671055996277      2.134671073138541      0.076011762244404
4
q [0.375, 0.375, 0.75] , b 9 , f 0.989714 , div 9 / 20 (generated by Phonopy) Lattice="4.137640 0.000000 0.000000 -0.000000 4.137640 0.000000 0.000000 -0.000000 4.137640"
Au       0.038877652574032      0.038877647835177      0.044219429177427
Au       0.038877642746705      2.107697574277228      2.113039289528833
Au       2.107697558831866      0.038877625211293      2.113039280642791
Au       2.107697556063659      2.107697579881152      0.044219418518235
4
q [0.375, 0.375, 0.75] , b 9 , f 0.989714 , div 10 / 20 (generated by Phonopy) Lattice="4.137640 0.000000 0.000000 -0.000000 4.137640 0.000000 0.000000 -0.000000 4.137640"
Au       0.008977303486138      0.008977291044755      0.008977335089473
Au       0.008977297850990      2.077797219337091      2.077797194007887
Au       2.077797204877923      0.008977281101031      2.077797191254316
Au       2.077797200577633      2.077797231794674      0.008977333452482
4
q [0.375, 0.375, 0.75] , b 9 , f 0.989714 , div 11 / 20 (generated by Phonopy) Lattice="4.137640 0.000000 0.000000 -0.000000 4.137640 0.000000 0.000000 -0.000000 4.137640"
Au      -0.020923045601756     -0.020923065745668     -0.026264758998481
Au      -0.020923047075738      2.047896864365941      2.042555098450387
Au       2.047896851038101     -0.020923062895108      2.042555102000352
Au       2.047896844661197      2.047896883277786     -0.026264752120573
4
q [0.375, 0.375, 0.75] , b 9 , f 0.989714 , div 12 / 20 (generated by Phonopy) Lattice="4.137640 0.000000 0.000000 -0.000000 4.137640 0.000000 0.000000 -0.000000 4.137640"
Au      -0.047896540192945     -0.047896567285409     -0.058057111370999
Au      -0.047896537944096      2.020923364436379      2.010762744715620
Au       2.020923352274260     -0.047896552778835      2.010762754123151
Au       2.020923343479481      2.020923388771299     -0.058057097318993
4
q [0.375, 0.375, 0.75] , b 9 , f 0.989714 , div 13 / 20 (generated by Phonopy) Lattice="4.137640 0.000000 0.000000 -0.000000 4.137640 0.000000 0.000000 -0.000000 4.137640"
Au      -0.069302826701456     -0.069302859308321     -0.083287665067513
Au      -0.069302821532530      1.999517073656933      1.985532189897500
Au       1.999517062580820     -0.069302835424977      1.985532204143247
Au       1.999517051263586      1.999517101852896     -0.083287645884460
4
q [0.375, 0.375, 0.75] , b 9 , f 0.989714 , div 14 / 20 (generated by Phonopy) Lattice="4.137640 0.000000 0.000000 -0.000000 4.137640 0.000000 0.000000 -0.000000 4.137640"
Au      -0.083046508657467     -0.083046544804796     -0.099486677700606
Au      -0.083046501657054      1.985773388915494      1.969333176493236
Au       1.985773378739365     -0.083046514741788      1.969333194084250
Au       1.985773365042011      1.985773419032521     -0.099486655931819
4
q [0.375, 0.375, 0.75] , b 9 , f 0.989714 , div 15 / 20 (generated by Phonopy) Lattice="4.137640 0.000000 0.000000 -0.000000 4.137640 0.000000 0.000000 -0.000000 4.137640"
Au      -0.087782258713261     -0.087782296080551     -0.105068477048591
Au      -0.087782251149230      1.981037637832438      1.963751376799999
Au       1.981037628282174     -0.087782263639894      1.963751395915877
Au       1.981037612580017      1.981037667742500     -0.105068455492495
4
q [0.375, 0.375, 0.75] , b 9 , f 0.989714 , div 16 / 20 (generated by Phonopy) Lattice="4.137640 0.000000 0.000000 -0.000000 4.137640 0.000000 0.000000 -0.000000 4.137640"
Au      -0.083046508657467     -0.083046544804796     -0.099486677700606
Au      -0.083046501852858      1.985773388719690      1.969333176262450
Au       1.985773379459909     -0.083046514021245      1.969333194933520
Au       1.985773362324511      1.985773416315021     -0.099486659134804
4
q [0.375, 0.375, 0.75] , b 9 , f 0.989714 , div 17 / 20 (generated by Phonopy) Lattice="4.137640 0.000000 0.000000 -0.000000 4.137640 0.000000 0.000000 -0.000000 4.137640"
Au      -0.069302826701456     -0.069302859308321     -0.083287665067514
Au      -0.069302821904972      1.999517073284491      1.985532189458521
Au       1.999517063951375     -0.069302834054423      1.985532205758653
Au       1.999517046094593      1.999517096683904     -0.083287651976899
4
q [0.375, 0.375, 0.75] , b 9 , f 0.989714 , div 18 / 20 (generated by Phonopy) Lattice="4.137640 0.000000 0.000000 -0.000000 4.137640 0.000000 0.000000 -0.000000 4.137640"
Au      -0.047896540192945     -0.047896567285409     -0.058057111370999
Au      -0.047896538456719      2.020923363923756      2.010762744111417
Au       2.020923354160667     -0.047896550892429      2.010762756346567
Au       2.020923336364973      2.020923381656793     -0.058057105704516
4
q [0.375, 0.375, 0.75] , b 9 , f 0.989714 , div 19 / 20 (generated by Phonopy) Lattice="4.137640 0.000000 0.000000 -0.000000 4.137640 0.000000 0.000000 -0.000000 4.137640"
Au      -0.020923045601756     -0.020923065745668     -0.026264758998482
Au      -0.020923047678362      2.047896863763317      2.042555097740103
Au       2.047896853255706     -0.020923060677504      2.042555104614134
Au       2.047896836297590      2.047896874914182     -0.026264761978347
