4
q [0.375, 0.375, 0.75] , b 1 , f 0.126238 , div 0 / 20 (generated by Phonopy) Lattice="4.137640 0.000000 0.000000 -0.000000 4.137640 0.000000 0.000000 -0.000000 4.137640"
Au       0.008977303486138      0.008977291044754      0.008977335089473
Au       0.008977297121747      2.077797219432698      2.077797193634468
Au       2.077797207561475      0.008977280749206      2.077797192628462
Au       2.077797201904525      2.077797221673767      0.008977328269944
4
q [0.375, 0.375, 0.75] , b 1 , f 0.126238 , div 1 / 20 (generated by Phonopy) Lattice="4.137640 0.000000 0.000000 -0.000000 4.137640 0.000000 0.000000 -0.000000 4.137640"
Au      -0.029946128066521      0.047900722015042      0.008977335094960
Au       0.047900727070523      2.038873787488645      2.077797193524251
Au       2.116720639509381     -0.029946149012927      2.077797193405647
Au       2.038873770736110      2.116720652650870      0.008977327979361
4
q [0.375, 0.375, 0.75] , b 1 , f 0.126238 , div 2 / 20 (generated by Phonopy) Lattice="4.137640 0.000000 0.000000 -0.000000 4.137640 0.000000 0.000000 -0.000000 4.137640"
Au      -0.065059462943310      0.083014056366468      0.008977335099910
Au       0.083014060540801      2.003760452218402      2.077797193424822
Au       2.151833974594168     -0.065059482125899      2.077797194106755
Au       2.003760435645656      2.151833987568739      0.008977327717221
4
q [0.375, 0.375, 0.75] , b 1 , f 0.126238 , div 3 / 20 (generated by Phonopy) Lattice="4.137640 0.000000 0.000000 -0.000000 4.137640 0.000000 0.000000 -0.000000 4.137640"
Au      -0.092925563277502      0.110880156283729      0.008977335103838
Au       0.110880159803530      1.975894351527213      2.077797193345915
Au       2.179700074928745     -0.092925580895635      2.077797194663157
Au       1.975894334520807      2.179700088556623      0.008977327509187
4
q [0.375, 0.375, 0.75] , b 1 , f 0.126238 , div 4 / 20 (generated by Phonopy) Lattice="4.137640 0.000000 0.000000 -0.000000 4.137640 0.000000 0.000000 -0.000000 4.137640"
Au      -0.110816701013847      0.128771293752387      0.008977335106360
Au       0.128771296908343      1.958003213505272      2.077797193295253
Au       2.197591212457825     -0.110816717420026      2.077797195020390
Au       1.958003195494208      2.197591227495286      0.008977327375620
4
q [0.375, 0.375, 0.75] , b 1 , f 0.126238 , div 5 / 20 (generated by Phonopy) Lattice="4.137640 0.000000 0.000000 -0.000000 4.137640 0.000000 0.000000 -0.000000 4.137640"
Au      -0.116981566935825      0.134936159582127      0.008977335107229
Au       0.134936162700541      1.951838347397054      2.077797193277797
Au       2.203756077985178     -0.116981582601186      2.077797195143483
Au       1.951838327908677      2.203756095050517      0.008977327329596
4
q [0.375, 0.375, 0.75] , b 1 , f 0.126238 , div 6 / 20 (generated by Phonopy) Lattice="4.137640 0.000000 0.000000 -0.000000 4.137640 0.000000 0.000000 -0.000000 4.137640"
Au      -0.110816701013847      0.128771293752387      0.008977335106360
Au       0.128771297163236      1.958003213250379      2.077797193295253
Au       2.197591211519842     -0.110816716482043      2.077797195020390
Au       1.958003191956643      2.197591231032851      0.008977327375620
4
q [0.375, 0.375, 0.75] , b 1 , f 0.126238 , div 7 / 20 (generated by Phonopy) Lattice="4.137640 0.000000 0.000000 -0.000000 4.137640 0.000000 0.000000 -0.000000 4.137640"
Au      -0.092925563277502      0.110880156283729      0.008977335103838
Au       0.110880160288364      1.975894351042379      2.077797193345915
Au       2.179700073144595     -0.092925579111485      2.077797194663157
Au       1.975894327791959      2.179700095285471      0.008977327509187
4
q [0.375, 0.375, 0.75] , b 1 , f 0.126238 , div 8 / 20 (generated by Phonopy) Lattice="4.137640 0.000000 0.000000 -0.000000 4.137640 0.000000 0.000000 -0.000000 4.137640"
Au      -0.065059462943310      0.083014056366468      0.008977335099910
Au       0.083014061208118      2.003760451551085      2.077797193424822
Au       2.151833972138497     -0.065059479670228      2.077797194106755
Au       2.003760426384191      2.151833996830204      0.008977327717221
4
q [0.375, 0.375, 0.75] , b 1 , f 0.126238 , div 9 / 20 (generated by Phonopy) Lattice="4.137640 0.000000 0.000000 -0.000000 4.137640 0.000000 0.000000 -0.000000 4.137640"
Au      -0.029946128066521      0.047900722015042      0.008977335094960
Au       0.047900727855002      2.038873786704166      2.077797193524251
Au       2.116720636622567     -0.029946146126113      2.077797193405647
Au       2.038873759848606      2.116720663538374      0.008977327979361
4
q [0.375, 0.375, 0.75] , b 1 , f 0.126238 , div 10 / 20 (generated by Phonopy) Lattice="4.137640 0.000000 0.000000 -0.000000 4.137640 0.000000 0.000000 -0.000000 4.137640"
Au       0.008977303486138      0.008977291044754      0.008977335089473
Au       0.008977297946597      2.077797218607848      2.077797193634468
Au       2.077797204526098      0.008977283784583      2.077797192628462
Au       2.077797190456725      2.077797233121566      0.008977328269944
4
q [0.375, 0.375, 0.75] , b 1 , f 0.126238 , div 11 / 20 (generated by Phonopy) Lattice="4.137640 0.000000 0.000000 -0.000000 4.137640 0.000000 0.000000 -0.000000 4.137640"
Au       0.047900735038796     -0.029946139925534      0.008977335083986
Au      -0.029946132002180      2.116720650551901      2.077797193744686
Au       2.038873772578191      0.047900713546716      2.077797191851278
Au       2.116720621625140      2.038873802144463      0.008977328560528
4
q [0.375, 0.375, 0.75] , b 1 , f 0.126238 , div 12 / 20 (generated by Phonopy) Lattice="4.137640 0.000000 0.000000 -0.000000 4.137640 0.000000 0.000000 -0.000000 4.137640"
Au       0.083014069915586     -0.065059474276960      0.008977335079036
Au      -0.065059465472457      2.151833985822143      2.077797193844114
Au       2.003760437493404      0.083014046659688      2.077797191150170
Au       2.151833956715594      2.003760467226595      0.008977328822667
4
q [0.375, 0.375, 0.75] , b 1 , f 0.126238 , div 13 / 20 (generated by Phonopy) Lattice="4.137640 0.000000 0.000000 -0.000000 4.137640 0.000000 0.000000 -0.000000 4.137640"
Au       0.110880170249777     -0.092925574194220      0.008977335075107
Au      -0.092925564735186      2.179700086513332      2.077797193923022
Au       1.975894337158828      0.110880145429424      2.077797190593768
Au       2.179700057840443      1.975894366238710      0.008977329030702
4
q [0.375, 0.375, 0.75] , b 1 , f 0.126238 , div 14 / 20 (generated by Phonopy) Lattice="4.137640 0.000000 0.000000 -0.000000 4.137640 0.000000 0.000000 -0.000000 4.137640"
Au       0.128771307986122     -0.110816711662878      0.008977335072585
Au      -0.110816701840000      2.197591224535274      2.077797193973683
Au       1.958003199629748      0.128771281953815      2.077797190236535
Au       2.197591196867042      1.958003227300047      0.008977329164268
4
q [0.375, 0.375, 0.75] , b 1 , f 0.126238 , div 15 / 20 (generated by Phonopy) Lattice="4.137640 0.000000 0.000000 -0.000000 4.137640 0.000000 0.000000 -0.000000 4.137640"
Au       0.134936173908100     -0.116981577492618      0.008977335071716
Au      -0.116981567632197      2.203756090643492      2.077797193991140
Au       1.951838334102395      0.134936147134975      2.077797190113441
Au       2.203756064452573      1.951838359744817      0.008977329210292
4
q [0.375, 0.375, 0.75] , b 1 , f 0.126238 , div 16 / 20 (generated by Phonopy) Lattice="4.137640 0.000000 0.000000 -0.000000 4.137640 0.000000 0.000000 -0.000000 4.137640"
Au       0.128771307986122     -0.110816711662878      0.008977335072585
Au      -0.110816702094893      2.197591224790167      2.077797193973683
Au       1.958003200567731      0.128771281015832      2.077797190236535
Au       2.197591200404607      1.958003223762483      0.008977329164268
4
q [0.375, 0.375, 0.75] , b 1 , f 0.126238 , div 17 / 20 (generated by Phonopy) Lattice="4.137640 0.000000 0.000000 -0.000000 4.137640 0.000000 0.000000 -0.000000 4.137640"
Au       0.110880170249777     -0.092925574194220      0.008977335075108
Au      -0.092925565220021      2.179700086998167      2.077797193923022
Au       1.975894338942978      0.110880143645274      2.077797190593768
Au       2.179700064569290      1.975894359509863      0.008977329030702
4
q [0.375, 0.375, 0.75] , b 1 , f 0.126238 , div 18 / 20 (generated by Phonopy) Lattice="4.137640 0.000000 0.000000 -0.000000 4.137640 0.000000 0.000000 -0.000000 4.137640"
Au       0.083014069915586     -0.065059474276960      0.008977335079036
Au      -0.065059466139775      2.151833986489461      2.077797193844114
Au       2.003760439949076      0.083014044204017      2.077797191150170
Au       2.151833965977059      2.003760457965130      0.008977328822667
4
q [0.375, 0.375, 0.75] , b 1 , f 0.126238 , div 19 / 20 (generated by Phonopy) Lattice="4.137640 0.000000 0.000000 -0.000000 4.137640 0.000000 0.000000 -0.000000 4.137640"
Au       0.047900735038796     -0.029946139925534      0.008977335083986
Au      -0.029946132786658      2.116720651336379      2.077797193744686
Au       2.038873775465006      0.047900710659902      2.077797191851278
Au       2.116720632512644      2.038873791256959      0.008977328560528
