(written by ASE)

128 atoms
2 atom types

0.0           12.6704721452  xlo xhi
0.0           12.6704721452  ylo yhi
0.0           12.6704721452  zlo zhi

Masses

1 12.0110 # C
2 95.9500 # Mo


Atoms # atomic

     1   2    0.099999999999999617                       0                       0
     2   2      3.1676180362999995                       0                       0
     3   2      6.3352360725999972                       0                       0
     4   2      9.5028541088999958                       0                       0
     5   2                       0      3.1676180362999995                       0
     6   2      3.1676180362999995      3.1676180362999995                       0
     7   2      6.3352360725999972      3.1676180362999995                       0
     8   2      9.5028541088999958      3.1676180362999995                       0
     9   2                       0      6.3352360725999972                       0
    10   2      3.1676180362999995      6.3352360725999972                       0
    11   2      6.3352360725999972      6.3352360725999972                       0
    12   2      9.5028541088999958      6.3352360725999972                       0
    13   2                       0      9.5028541088999958                       0
    14   2      3.1676180362999995      9.5028541088999958                       0
    15   2      6.3352360725999972      9.5028541088999958                       0
    16   2      9.5028541088999958      9.5028541088999958                       0
    17   2                       0                       0      3.1676180362999995
    18   2      3.1676180362999995                       0      3.1676180362999995
    19   2      6.3352360725999972                       0      3.1676180362999995
    20   2      9.5028541088999958                       0      3.1676180362999995
    21   2                       0      3.1676180362999995      3.1676180362999995
    22   2      3.1676180362999995      3.1676180362999995      3.1676180362999995
    23   2      6.3352360725999972      3.1676180362999995      3.1676180362999995
    24   2      9.5028541088999958      3.1676180362999995      3.1676180362999995
    25   2                       0      6.3352360725999972      3.1676180362999995
    26   2      3.1676180362999995      6.3352360725999972      3.1676180362999995
    27   2      6.3352360725999972      6.3352360725999972      3.1676180362999995
    28   2      9.5028541088999958      6.3352360725999972      3.1676180362999995
    29   2                       0      9.5028541088999958      3.1676180362999995
    30   2      3.1676180362999995      9.5028541088999958      3.1676180362999995
    31   2      6.3352360725999972      9.5028541088999958      3.1676180362999995
    32   2      9.5028541088999958      9.5028541088999958      3.1676180362999995
    33   2                       0                       0      6.3352360725999972
    34   2      3.1676180362999995                       0      6.3352360725999972
    35   2      6.3352360725999972                       0      6.3352360725999972
    36   2      9.5028541088999958                       0      6.3352360725999972
    37   2                       0      3.1676180362999995      6.3352360725999972
    38   2      3.1676180362999995      3.1676180362999995      6.3352360725999972
    39   2      6.3352360725999972      3.1676180362999995      6.3352360725999972
    40   2      9.5028541088999958      3.1676180362999995      6.3352360725999972
    41   2                       0      6.3352360725999972      6.3352360725999972
    42   2      3.1676180362999995      6.3352360725999972      6.3352360725999972
    43   2      6.3352360725999972      6.3352360725999972      6.3352360725999972
    44   2      9.5028541088999958      6.3352360725999972      6.3352360725999972
    45   2                       0      9.5028541088999958      6.3352360725999972
    46   2      3.1676180362999995      9.5028541088999958      6.3352360725999972
    47   2      6.3352360725999972      9.5028541088999958      6.3352360725999972
    48   2      9.5028541088999958      9.5028541088999958      6.3352360725999972
    49   2                       0                       0      9.5028541088999958
    50   2      3.1676180362999995                       0      9.5028541088999958
    51   2      6.3352360725999972                       0      9.5028541088999958
    52   2      9.5028541088999958                       0      9.5028541088999958
    53   2                       0      3.1676180362999995      9.5028541088999958
    54   2      3.1676180362999995      3.1676180362999995      9.5028541088999958
    55   2      6.3352360725999972      3.1676180362999995      9.5028541088999958
    56   2      9.5028541088999958      3.1676180362999995      9.5028541088999958
    57   2                       0      6.3352360725999972      9.5028541088999958
    58   2      3.1676180362999995      6.3352360725999972      9.5028541088999958
    59   2      6.3352360725999972      6.3352360725999972      9.5028541088999958
    60   2      9.5028541088999958      6.3352360725999972      9.5028541088999958
    61   2                       0      9.5028541088999958      9.5028541088999958
    62   2      3.1676180362999995      9.5028541088999958      9.5028541088999958
    63   2      6.3352360725999972      9.5028541088999958      9.5028541088999958
    64   2      9.5028541088999958      9.5028541088999958      9.5028541088999958
    65   2            1.5838090182            1.5838090182            1.5838090182
    66   2      4.7514270544999979            1.5838090182            1.5838090182
    67   2      7.9190450907999992            1.5838090182            1.5838090182
    68   2      11.086663127099996            1.5838090182            1.5838090182
    69   2            1.5838090182      4.7514270544999979            1.5838090182
    70   2      4.7514270544999979      4.7514270544999979            1.5838090182
    71   2      7.9190450907999992      4.7514270544999979            1.5838090182
    72   2      11.086663127099996      4.7514270544999979            1.5838090182
    73   2            1.5838090182      7.9190450907999992            1.5838090182
    74   2      4.7514270544999979      7.9190450907999992            1.5838090182
    75   2      7.9190450907999992      7.9190450907999992            1.5838090182
    76   2      11.086663127099996      7.9190450907999992            1.5838090182
    77   2            1.5838090182      11.086663127099996            1.5838090182
    78   2      4.7514270544999979      11.086663127099996            1.5838090182
    79   2      7.9190450907999992      11.086663127099996            1.5838090182
    80   2      11.086663127099996      11.086663127099996            1.5838090182
    81   2            1.5838090182            1.5838090182      4.7514270544999979
    82   2      4.7514270544999979            1.5838090182      4.7514270544999979
    83   2      7.9190450907999992            1.5838090182      4.7514270544999979
    84   2      11.086663127099996            1.5838090182      4.7514270544999979
    85   2            1.5838090182      4.7514270544999979      4.7514270544999979
    86   2      4.7514270544999979      4.7514270544999979      4.7514270544999979
    87   2      7.9190450907999992      4.7514270544999979      4.7514270544999979
    88   2      11.086663127099996      4.7514270544999979      4.7514270544999979
    89   2            1.5838090182      7.9190450907999992      4.7514270544999979
    90   2      4.7514270544999979      7.9190450907999992      4.7514270544999979
    91   2      7.9190450907999992      7.9190450907999992      4.7514270544999979
    92   2      11.086663127099996      7.9190450907999992      4.7514270544999979
    93   2            1.5838090182      11.086663127099996      4.7514270544999979
    94   2      4.7514270544999979      11.086663127099996      4.7514270544999979
    95   2      7.9190450907999992      11.086663127099996      4.7514270544999979
    96   2      11.086663127099996      11.086663127099996      4.7514270544999979
    97   2            1.5838090182            1.5838090182      7.9190450907999992
    98   2      4.7514270544999979            1.5838090182      7.9190450907999992
    99   2      7.9190450907999992            1.5838090182      7.9190450907999992
   100   2      11.086663127099996            1.5838090182      7.9190450907999992
   101   2            1.5838090182      4.7514270544999979      7.9190450907999992
   102   2      4.7514270544999979      4.7514270544999979      7.9190450907999992
   103   2      7.9190450907999992      4.7514270544999979      7.9190450907999992
   104   2      11.086663127099996      4.7514270544999979      7.9190450907999992
   105   2            1.5838090182      7.9190450907999992      7.9190450907999992
   106   2      4.7514270544999979      7.9190450907999992      7.9190450907999992
   107   2      7.9190450907999992      7.9190450907999992      7.9190450907999992
   108   2      11.086663127099996      7.9190450907999992      7.9190450907999992
   109   2            1.5838090182      11.086663127099996      7.9190450907999992
   110   2      4.7514270544999979      11.086663127099996      7.9190450907999992
   111   2      7.9190450907999992      11.086663127099996      7.9190450907999992
   112   2      11.086663127099996      11.086663127099996      7.9190450907999992
   113   2            1.5838090182            1.5838090182      11.086663127099996
   114   2      4.7514270544999979            1.5838090182      11.086663127099996
   115   2      7.9190450907999992            1.5838090182      11.086663127099996
   116   2      11.086663127099996            1.5838090182      11.086663127099996
   117   2            1.5838090182      4.7514270544999979      11.086663127099996
   118   2      4.7514270544999979      4.7514270544999979      11.086663127099996
   119   2      7.9190450907999992      4.7514270544999979      11.086663127099996
   120   2      11.086663127099996      4.7514270544999979      11.086663127099996
   121   2            1.5838090182      7.9190450907999992      11.086663127099996
   122   2      4.7514270544999979      7.9190450907999992      11.086663127099996
   123   2      7.9190450907999992      7.9190450907999992      11.086663127099996
   124   2      11.086663127099996      7.9190450907999992      11.086663127099996
   125   2            1.5838090182      11.086663127099996      11.086663127099996
   126   2      4.7514270544999979      11.086663127099996      11.086663127099996
   127   2      7.9190450907999992      11.086663127099996      11.086663127099996
   128   2      11.086663127099996      11.086663127099996      11.086663127099996
