ITEM: TIMESTEP
0
ITEM: NUMBER OF ATOMS
128
ITEM: BOX BOUNDS pp pp pp
0.0000000000000000e+00 1.2670472145200000e+01
0.0000000000000000e+00 1.2670472145200000e+01
0.0000000000000000e+00 1.2670472145200000e+01
ITEM: ATOMS id type x y z fx fy fz
1 2 0.1 0 0 -1.26575 3.21197e-10 3.21193e-10
2 2 3.16762 0 0 0.288326 3.28252e-10 3.28252e-10
3 2 6.33524 0 0 0.0189036 3.19033e-10 3.19038e-10
5 2 0 3.16762 0 -0.00328393 0.00460262 3.18862e-10
6 2 3.16762 3.16762 0 0.0153537 0.0116561 3.22747e-10
7 2 6.33524 3.16762 0 -0.000154966 -8.23946e-05 3.19037e-10
9 2 0 6.33524 0 0.00120201 3.19073e-10 3.19048e-10
10 2 3.16762 6.33524 0 -0.000822302 3.18826e-10 3.19059e-10
11 2 6.33524 6.33524 0 0.000765263 3.19081e-10 3.19037e-10
17 2 0 0 3.16762 -0.00328393 3.18854e-10 0.00460262
18 2 3.16762 0 3.16762 0.0153537 3.22743e-10 0.0116561
19 2 6.33524 0 3.16762 -0.000154966 3.19041e-10 -8.23946e-05
21 2 0 3.16762 3.16762 -0.0108732 0.00294908 0.00294908
22 2 3.16762 3.16762 3.16762 0.00662655 0.0106893 0.0106893
23 2 6.33524 3.16762 3.16762 -0.000338055 -2.38378e-05 -2.38378e-05
25 2 0 6.33524 3.16762 -0.000430695 3.19074e-10 1.85485e-05
26 2 3.16762 6.33524 3.16762 2.82599e-05 3.19064e-10 -0.000174262
27 2 6.33524 6.33524 3.16762 3.19078e-10 3.19076e-10 3.19054e-10
65 2 1.58381 1.58381 1.58381 0.107283 0.059117 0.059117
66 2 4.75143 1.58381 1.58381 -0.00350827 0.000476899 0.000476899
69 2 1.58381 4.75143 1.58381 -0.0011969 0.00209364 0.0029022
70 2 4.75143 4.75143 1.58381 -0.000888757 -0.00059972 0.000229545
33 2 0 0 6.33524 0.00120201 3.19038e-10 3.19071e-10
34 2 3.16762 0 6.33524 -0.000822302 3.19061e-10 3.18817e-10
35 2 6.33524 0 6.33524 0.000765263 3.19036e-10 3.19066e-10
37 2 0 3.16762 6.33524 -0.000430695 1.85485e-05 3.19076e-10
38 2 3.16762 3.16762 6.33524 2.82599e-05 -0.000174262 3.19064e-10
39 2 6.33524 3.16762 6.33524 3.19083e-10 3.19052e-10 3.19079e-10
41 2 0 6.33524 6.33524 -7.24018e-05 3.19069e-10 3.19074e-10
42 2 3.16762 6.33524 6.33524 3.19049e-10 3.19086e-10 3.19082e-10
43 2 6.33524 6.33524 6.33524 3.19077e-10 3.19078e-10 3.19078e-10
81 2 1.58381 1.58381 4.75143 -0.0011969 0.0029022 0.00209364
82 2 4.75143 1.58381 4.75143 -0.000888757 0.000229545 -0.00059972
85 2 1.58381 4.75143 4.75143 -0.000631476 0.000212426 0.000212426
86 2 4.75143 4.75143 4.75143 -3.19063e-10 -3.19072e-10 -3.19066e-10
49 2 0 0 9.50285 -0.00328393 3.18861e-10 -0.00460262
50 2 3.16762 0 9.50285 0.0153537 3.22739e-10 -0.0116561
51 2 6.33524 0 9.50285 -0.000154966 3.19034e-10 8.23952e-05
53 2 0 3.16762 9.50285 -0.0108732 0.00294908 -0.00294908
54 2 3.16762 3.16762 9.50285 0.00662655 0.0106893 -0.0106893
55 2 6.33524 3.16762 9.50285 -0.000338055 -2.38378e-05 2.38384e-05
57 2 0 6.33524 9.50285 -0.000430695 3.19082e-10 -1.85479e-05
58 2 3.16762 6.33524 9.50285 2.82599e-05 3.19087e-10 0.000174262
59 2 6.33524 6.33524 9.50285 3.19069e-10 3.19066e-10 3.19106e-10
97 2 1.58381 1.58381 7.91905 -0.0011969 0.0029022 -0.00209364
98 2 4.75143 1.58381 7.91905 -0.000888757 0.000229545 0.000599719
101 2 1.58381 4.75143 7.91905 -0.000631476 0.000212426 -0.000212427
102 2 4.75143 4.75143 7.91905 -3.19057e-10 -3.19057e-10 -3.19095e-10
113 2 1.58381 1.58381 11.0867 0.107283 0.059117 -0.059117
114 2 4.75143 1.58381 11.0867 -0.00350827 0.000476899 -0.0004769
117 2 1.58381 4.75143 11.0867 -0.0011969 0.00209364 -0.0029022
118 2 4.75143 4.75143 11.0867 -0.000888757 -0.00059972 -0.000229545
13 2 0 9.50285 0 -0.00328393 -0.00460262 3.18863e-10
14 2 3.16762 9.50285 0 0.0153537 -0.0116561 3.22739e-10
15 2 6.33524 9.50285 0 -0.000154966 8.23952e-05 3.19028e-10
29 2 0 9.50285 3.16762 -0.0108732 -0.00294908 0.00294908
30 2 3.16762 9.50285 3.16762 0.00662655 -0.0106893 0.0106893
31 2 6.33524 9.50285 3.16762 -0.000338055 2.38384e-05 -2.38378e-05
73 2 1.58381 7.91905 1.58381 -0.0011969 -0.00209364 0.0029022
74 2 4.75143 7.91905 1.58381 -0.000888757 0.000599719 0.000229545
77 2 1.58381 11.0867 1.58381 0.107283 -0.059117 0.059117
78 2 4.75143 11.0867 1.58381 -0.00350827 -0.0004769 0.000476899
45 2 0 9.50285 6.33524 -0.000430695 -1.85479e-05 3.19081e-10
46 2 3.16762 9.50285 6.33524 2.82599e-05 0.000174262 3.19073e-10
47 2 6.33524 9.50285 6.33524 3.19071e-10 3.19102e-10 3.19069e-10
89 2 1.58381 7.91905 4.75143 -0.000631476 -0.000212427 0.000212426
90 2 4.75143 7.91905 4.75143 -3.19055e-10 -3.19098e-10 -3.19056e-10
93 2 1.58381 11.0867 4.75143 -0.0011969 -0.0029022 0.00209364
94 2 4.75143 11.0867 4.75143 -0.000888757 -0.000229545 -0.00059972
61 2 0 9.50285 9.50285 -0.0108732 -0.00294908 -0.00294908
62 2 3.16762 9.50285 9.50285 0.00662655 -0.0106893 -0.0106893
63 2 6.33524 9.50285 9.50285 -0.000338055 2.38384e-05 2.38384e-05
105 2 1.58381 7.91905 7.91905 -0.000631476 -0.000212427 -0.000212427
106 2 4.75143 7.91905 7.91905 -3.19056e-10 -3.19102e-10 -3.19093e-10
109 2 1.58381 11.0867 7.91905 -0.0011969 -0.0029022 -0.00209364
110 2 4.75143 11.0867 7.91905 -0.000888757 -0.000229545 0.000599719
121 2 1.58381 7.91905 11.0867 -0.0011969 -0.00209364 -0.0029022
122 2 4.75143 7.91905 11.0867 -0.000888757 0.000599719 -0.000229545
125 2 1.58381 11.0867 11.0867 0.107283 -0.059117 -0.059117
126 2 4.75143 11.0867 11.0867 -0.00350827 -0.0004769 -0.0004769
4 2 9.50285 0 0 0.20613 3.11502e-10 3.11506e-10
8 2 9.50285 3.16762 0 0.0131728 -0.00940358 3.14943e-10
12 2 9.50285 6.33524 0 -0.000748112 3.19291e-10 3.19027e-10
20 2 9.50285 0 3.16762 0.0131728 3.14946e-10 -0.00940358
24 2 9.50285 3.16762 3.16762 0.00732994 -0.00928049 -0.00928049
28 2 9.50285 6.33524 3.16762 2.18661e-05 3.19093e-10 0.000133814
67 2 7.91905 1.58381 1.58381 -0.00372864 -0.00128456 -0.00128456
68 2 11.0867 1.58381 1.58381 0.0708167 -0.0443395 -0.0443395
71 2 7.91905 4.75143 1.58381 -0.000958698 0.000632947 -8.97956e-05
72 2 11.0867 4.75143 1.58381 -0.00155011 0.000403989 -0.00243298
36 2 9.50285 0 6.33524 -0.000748112 3.19031e-10 3.19288e-10
40 2 9.50285 3.16762 6.33524 2.18661e-05 0.000133814 3.19088e-10
44 2 9.50285 6.33524 6.33524 3.19106e-10 3.19065e-10 3.19073e-10
83 2 7.91905 1.58381 4.75143 -0.000958698 -8.97956e-05 0.000632947
84 2 11.0867 1.58381 4.75143 -0.00155011 -0.00243298 0.000403989
87 2 7.91905 4.75143 4.75143 -3.19096e-10 -3.19051e-10 -3.19055e-10
88 2 11.0867 4.75143 4.75143 -0.000577079 -0.000161613 -0.000161613
52 2 9.50285 0 9.50285 0.0131728 3.14957e-10 0.00940358
56 2 9.50285 3.16762 9.50285 0.00732994 -0.00928049 0.0092805
60 2 9.50285 6.33524 9.50285 2.18661e-05 3.19082e-10 -0.000133813
99 2 7.91905 1.58381 7.91905 -0.000958698 -8.97956e-05 -0.000632948
100 2 11.0867 1.58381 7.91905 -0.00155011 -0.00243298 -0.00040399
103 2 7.91905 4.75143 7.91905 -3.19094e-10 -3.19052e-10 -3.19091e-10
104 2 11.0867 4.75143 7.91905 -0.000577079 -0.000161613 0.000161612
115 2 7.91905 1.58381 11.0867 -0.00372864 -0.00128456 0.00128456
116 2 11.0867 1.58381 11.0867 0.0708167 -0.0443395 0.0443395
119 2 7.91905 4.75143 11.0867 -0.000958698 0.000632947 8.97949e-05
120 2 11.0867 4.75143 11.0867 -0.00155011 0.000403989 0.00243298
16 2 9.50285 9.50285 0 0.0131728 0.00940358 3.14951e-10
32 2 9.50285 9.50285 3.16762 0.00732994 0.0092805 -0.00928049
75 2 7.91905 7.91905 1.58381 -0.000958698 -0.000632948 -8.97956e-05
76 2 11.0867 7.91905 1.58381 -0.00155011 -0.00040399 -0.00243298
79 2 7.91905 11.0867 1.58381 -0.00372864 0.00128456 -0.00128456
80 2 11.0867 11.0867 1.58381 0.0708167 0.0443395 -0.0443395
48 2 9.50285 9.50285 6.33524 2.18661e-05 -0.000133813 3.19086e-10
91 2 7.91905 7.91905 4.75143 -3.19093e-10 -3.19096e-10 -3.19056e-10
92 2 11.0867 7.91905 4.75143 -0.000577079 0.000161612 -0.000161613
95 2 7.91905 11.0867 4.75143 -0.000958698 8.97949e-05 0.000632947
96 2 11.0867 11.0867 4.75143 -0.00155011 0.00243298 0.000403989
64 2 9.50285 9.50285 9.50285 0.00732994 0.0092805 0.0092805
107 2 7.91905 7.91905 7.91905 -3.19096e-10 -3.19099e-10 -3.19097e-10
108 2 11.0867 7.91905 7.91905 -0.000577079 0.000161612 0.000161612
111 2 7.91905 11.0867 7.91905 -0.000958698 8.97949e-05 -0.000632948
112 2 11.0867 11.0867 7.91905 -0.00155011 0.00243298 -0.00040399
123 2 7.91905 7.91905 11.0867 -0.000958698 -0.000632948 8.97949e-05
124 2 11.0867 7.91905 11.0867 -0.00155011 -0.00040399 0.00243298
127 2 7.91905 11.0867 11.0867 -0.00372864 0.00128456 0.00128456
128 2 11.0867 11.0867 11.0867 0.0708167 0.0443395 0.0443395
