LAMMPS (29 Oct 2020)
# Initialize simulation
units metal
dimension 3
boundary p p p
atom_style atomic

# Read the displaced structure
read_data disp-001.lammps
Reading data file ...
  orthogonal box = (0.0000000 0.0000000 0.0000000) to (12.670472 12.670472 12.670472)
  2 by 2 by 4 MPI processor grid
  reading atoms ...
  128 atoms
  read_data CPU = 0.009 seconds

# Define interatomic potential

pair_style mlip mlip.ini
pair_coeff * *

# Apply fix to ensure static calculation
fix 1 all setforce NULL NULL NULL

# Output forces
thermo_style custom step temp pe press
dump 1 all custom 1 forces.lammpstrj id type x y z fx fy fz
run 0
Neighbor list info ...
  update every 1 steps, delay 10 steps, check yes
  max neighbors/atom: 2000, page size: 100000
  master list distance cutoff = 7
  ghost atom cutoff = 7
  binsize = 3.5, bins = 4 4 4
  1 neighbor lists, perpetual/occasional/extra = 1 0 0
  (1) pair mlip, perpetual
      attributes: full, newton on
      pair build: full/bin/atomonly
      stencil: full/bin/3d
      bin: standard
Per MPI rank memory allocation (min/avg/max) = 4.219 | 4.219 | 4.219 Mbytes
Step Temp PotEng Press 
       0            0   -2767.7864    17394.027 
Loop time of 6.65546e-06 on 16 procs for 0 steps with 128 atoms

32.9% CPU use with 16 MPI tasks x no OpenMP threads

MPI task timing breakdown:
Section |  min time  |  avg time  |  max time  |%varavg| %total
---------------------------------------------------------------
Pair    | 0          | 0          | 0          |   0.0 |  0.00
Neigh   | 0          | 0          | 0          |   0.0 |  0.00
Comm    | 0          | 0          | 0          |   0.0 |  0.00
Output  | 0          | 0          | 0          |   0.0 |  0.00
Modify  | 0          | 0          | 0          |   0.0 |  0.00
Other   |            | 6.655e-06  |            |       |100.00

Nlocal:        8.00000 ave          22 max           4 min
Histogram: 6 5 0 2 0 2 0 0 0 1
Nghost:        466.000 ave         470 max         452 min
Histogram: 1 0 0 0 0 2 2 0 5 6
Neighs:        0.00000 ave           0 max           0 min
Histogram: 16 0 0 0 0 0 0 0 0 0
FullNghs:      704.500 ave        1942 max         352 min
Histogram: 6 5 0 2 2 0 0 0 0 1

Total # of neighbors = 11272
Ave neighs/atom = 88.062500
Neighbor list builds = 0
Dangerous builds = 0
Total wall time: 0:00:00
