4
q [0.5, 0.0, 0.5] , b 12 , f 0.801321 , div 0 / 20 (generated by Phonopy) Lattice="4.137640 0.000000 0.000000 -0.000000 4.137640 0.000000 0.000000 -0.000000 4.137640"
Au       0.008977303486138      0.008977291044754      0.008977338366397
Au       0.238178244966231      2.077797221376964      1.973315592200574
Au       2.077797209320711      0.008977282266895      2.077797192628462
Au       1.973315593515759      2.077797228612958      0.238178272841249
4
q [0.5, 0.0, 0.5] , b 12 , f 0.801321 , div 1 / 20 (generated by Phonopy) Lattice="4.137640 0.000000 0.000000 -0.000000 4.137640 0.000000 0.000000 -0.000000 4.137640"
Au       0.008977304299679      0.008977291044754      0.008977338017724
Au       0.225943914532396      2.077797221251168      1.978892631929463
Au       2.077797208972037      0.008977282266895      2.077797193442004
Au       1.978892631992937      2.077797228548088      0.225943945450131
4
q [0.5, 0.0, 0.5] , b 12 , f 0.801321 , div 2 / 20 (generated by Phonopy) Lattice="4.137640 0.000000 0.000000 -0.000000 4.137640 0.000000 0.000000 -0.000000 4.137640"
Au       0.008977305033586      0.008977291044754      0.008977337382412
Au       0.192471379931464      2.077797220906997      1.994151139266640
Au       2.077797208336726      0.008977282266895      2.077797194175910
Au       1.994151138321425      2.077797228370607      0.192471413874106
4
q [0.5, 0.0, 0.5] , b 12 , f 0.801321 , div 3 / 20 (generated by Phonopy) Lattice="4.137640 0.000000 0.000000 -0.000000 4.137640 0.000000 0.000000 -0.000000 4.137640"
Au       0.008977305616017      0.008977291044754      0.008977336522652
Au       0.141037166067037      2.077797220378140      2.017597505201671
Au       2.077797207476966      0.008977282266895      2.077797194758341
Au       2.017597503589526      2.077797228097887      0.141037202720674
4
q [0.5, 0.0, 0.5] , b 12 , f 0.801321 , div 4 / 20 (generated by Phonopy) Lattice="4.137640 0.000000 0.000000 -0.000000 4.137640 0.000000 0.000000 -0.000000 4.137640"
Au       0.008977305989961      0.008977291044754      0.008977335522602
Au       0.076676012155405      2.077797219716365      2.046936636076396
Au       2.077797206476916      0.008977282266895      2.077797195132285
Au       2.046936634204366      2.077797227756625      0.076676050940756
4
q [0.5, 0.0, 0.5] , b 12 , f 0.801321 , div 5 / 20 (generated by Phonopy) Lattice="4.137640 0.000000 0.000000 -0.000000 4.137640 0.000000 0.000000 -0.000000 4.137640"
Au       0.008977306118813      0.008977291044754      0.008977334480155
Au       0.005688036371966      2.077797218986452      2.079296613343053
Au       2.077797205434468      0.008977282266895      2.077797195261138
Au       2.079296611643620      2.077797227380226      0.005688076501082
4
q [0.5, 0.0, 0.5] , b 12 , f 0.801321 , div 6 / 20 (generated by Phonopy) Lattice="4.137640 0.000000 0.000000 -0.000000 4.137640 0.000000 0.000000 -0.000000 4.137640"
Au       0.008977305989961      0.008977291044754      0.008977333497352
Au      -0.064977963611286      2.077797218259850      2.111509816961562
Au       2.077797204451665      0.008977282266895      2.077797195132285
Au       2.111509815850315      2.077797227005534     -0.064977923057891
4
q [0.5, 0.0, 0.5] , b 12 , f 0.801321 , div 7 / 20 (generated by Phonopy) Lattice="4.137640 0.000000 0.000000 -0.000000 4.137640 0.000000 0.000000 -0.000000 4.137640"
Au       0.008977305616017      0.008977291044755      0.008977332670396
Au      -0.128404707357017      2.077797217607683      2.140422994119157
Au       2.077797203624710      0.008977282266895      2.077797194758341
Au       2.140422993954107      2.077797226669227     -0.128404667340361
4
q [0.5, 0.0, 0.5] , b 12 , f 0.801321 , div 8 / 20 (generated by Phonopy) Lattice="4.137640 0.000000 0.000000 -0.000000 4.137640 0.000000 0.000000 -0.000000 4.137640"
Au       0.008977305033586      0.008977291044755      0.008977332080237
Au      -0.178383543267286      2.077797217093790      2.163205921585701
Au       2.077797203034550      0.008977282266894      2.077797194175910
Au       2.163205922632240      2.077797226404225     -0.178383504695846
4
q [0.5, 0.0, 0.5] , b 12 , f 0.801321 , div 9 / 20 (generated by Phonopy) Lattice="4.137640 0.000000 0.000000 -0.000000 4.137640 0.000000 0.000000 -0.000000 4.137640"
Au       0.008977304299679      0.008977291044755      0.008977331784643
Au      -0.210022194660170      2.077797216768475      2.177628447682780
Au       2.077797202738956      0.008977282266894      2.077797193442004
Au       2.177628450087701      2.077797226236467     -0.210022158300956
4
q [0.5, 0.0, 0.5] , b 12 , f 0.801321 , div 10 / 20 (generated by Phonopy) Lattice="4.137640 0.000000 0.000000 -0.000000 4.137640 0.000000 0.000000 -0.000000 4.137640"
Au       0.008977303486138      0.008977291044755      0.008977331812548
Au      -0.220223649897888      2.077797216663582      2.182278795068363
Au       2.077797202766862      0.008977282266894      2.077797192628462
Au       2.182278798845491      2.077797226182376     -0.220223616301360
4
q [0.5, 0.0, 0.5] , b 12 , f 0.801321 , div 11 / 20 (generated by Phonopy) Lattice="4.137640 0.000000 0.000000 -0.000000 4.137640 0.000000 0.000000 -0.000000 4.137640"
Au       0.008977302672596      0.008977291044755      0.008977332161222
Au      -0.207989319464052      2.077797216789378      2.176701755339473
Au       2.077797203115535      0.008977282266894      2.077797191814921
Au       2.176701760368313      2.077797226247246     -0.207989288910243
4
q [0.5, 0.0, 0.5] , b 12 , f 0.801321 , div 12 / 20 (generated by Phonopy) Lattice="4.137640 0.000000 0.000000 -0.000000 4.137640 0.000000 0.000000 -0.000000 4.137640"
Au       0.008977301938690      0.008977291044755      0.008977332796533
Au      -0.174516784863121      2.077797217133549      2.161443248002296
Au       2.077797203750847      0.008977282266894      2.077797191081015
Au       2.161443254039825      2.077797226424727     -0.174516757334217
4
q [0.5, 0.0, 0.5] , b 12 , f 0.801321 , div 13 / 20 (generated by Phonopy) Lattice="4.137640 0.000000 0.000000 -0.000000 4.137640 0.000000 0.000000 -0.000000 4.137640"
Au       0.008977301356259      0.008977291044754      0.008977333656294
Au      -0.123082570998694      2.077797217662406      2.137996882067266
Au       2.077797204610607      0.008977282266894      2.077797190498583
Au       2.137996888771724      2.077797226697446     -0.123082546180786
4
q [0.5, 0.0, 0.5] , b 12 , f 0.801321 , div 14 / 20 (generated by Phonopy) Lattice="4.137640 0.000000 0.000000 -0.000000 4.137640 0.000000 0.000000 -0.000000 4.137640"
Au       0.008977300982315      0.008977291044754      0.008977334656343
Au      -0.058721417087062      2.077797218324181      2.108657751192541
Au       2.077797205610657      0.008977282266894      2.077797190124639
Au       2.108657758156884      2.077797227038708     -0.058721394400868
4
q [0.5, 0.0, 0.5] , b 12 , f 0.801321 , div 15 / 20 (generated by Phonopy) Lattice="4.137640 0.000000 0.000000 -0.000000 4.137640 0.000000 0.000000 -0.000000 4.137640"
Au       0.008977300853462      0.008977291044754      0.008977335698791
Au       0.012266558696377      2.077797219054094      2.076297773925884
Au       2.077797206653104      0.008977282266895      2.077797189995787
Au       2.076297780717630      2.077797227415108      0.012266580038806
4
q [0.5, 0.0, 0.5] , b 12 , f 0.801321 , div 16 / 20 (generated by Phonopy) Lattice="4.137640 0.000000 0.000000 -0.000000 4.137640 0.000000 0.000000 -0.000000 4.137640"
Au       0.008977300982315      0.008977291044754      0.008977336681594
Au       0.082932558679629      2.077797219780696      2.044084570307375
Au       2.077797207635908      0.008977282266895      2.077797190124639
Au       2.044084576510935      2.077797227789799      0.082932579597779
4
q [0.5, 0.0, 0.5] , b 12 , f 0.801321 , div 17 / 20 (generated by Phonopy) Lattice="4.137640 0.000000 0.000000 -0.000000 4.137640 0.000000 0.000000 -0.000000 4.137640"
Au       0.008977301356259      0.008977291044754      0.008977337508550
Au       0.146359302425360      2.077797220432863      2.015171393149780
Au       2.077797208462863      0.008977282266895      2.077797190498583
Au       2.015171398407143      2.077797228126107      0.146359323880249
4
q [0.5, 0.0, 0.5] , b 12 , f 0.801321 , div 18 / 20 (generated by Phonopy) Lattice="4.137640 0.000000 0.000000 -0.000000 4.137640 0.000000 0.000000 -0.000000 4.137640"
Au       0.008977301938690      0.008977291044754      0.008977338098709
Au       0.196338138335629      2.077797220946755      1.992388465683235
Au       2.077797209053022      0.008977282266895      2.077797191081014
Au       1.992388469729010      2.077797228391109      0.196338161235734
4
q [0.5, 0.0, 0.5] , b 12 , f 0.801321 , div 19 / 20 (generated by Phonopy) Lattice="4.137640 0.000000 0.000000 -0.000000 4.137640 0.000000 0.000000 -0.000000 4.137640"
Au       0.008977302672596      0.008977291044754      0.008977338394303
Au       0.227976789728514      2.077797221272071      1.977965939586157
Au       2.077797209348617      0.008977282266895      2.077797191814921
Au       1.977965942273549      2.077797228558867      0.227976814840844
