4
q [0.5, 0.0, 0.5] , b 10 , f 0.801321 , div 0 / 20 (generated by Phonopy) Lattice="4.137640 0.000000 0.000000 -0.000000 4.137640 0.000000 0.000000 -0.000000 4.137640"
Au       0.008977303486138      0.008977291044754      0.008977334495827
Au      -0.066782579510472      2.077797217964796      1.911603011241747
Au       2.077797205450140      0.008977282266895      2.077797192628462
Au       1.911603005012726      2.077797226032849     -0.066782550504572
4
q [0.5, 0.0, 0.5] , b 10 , f 0.801321 , div 1 / 20 (generated by Phonopy) Lattice="4.137640 0.000000 0.000000 -0.000000 4.137640 0.000000 0.000000 -0.000000 4.137640"
Au       0.008977304250339      0.008977291044754      0.008977333797473
Au      -0.040835932797744      2.077797218326281      1.968522085796774
Au       2.077797204751786      0.008977282266895      2.077797193392664
Au       1.968522078587458      2.077797226500279     -0.040835905016260
4
q [0.5, 0.0, 0.5] , b 10 , f 0.801321 , div 2 / 20 (generated by Phonopy) Lattice="4.137640 0.000000 0.000000 -0.000000 4.137640 0.000000 0.000000 -0.000000 4.137640"
Au       0.008977304939735      0.008977291044754      0.008977333225588
Au      -0.010013220030944      2.077797218755700      2.036137769271401
Au       2.077797204179902      0.008977282266895      2.077797194082060
Au       2.036137762036723      2.077797227055552     -0.010013193184689
4
q [0.5, 0.0, 0.5] , b 10 , f 0.801321 , div 3 / 20 (generated by Phonopy) Lattice="4.137640 0.000000 0.000000 -0.000000 4.137640 0.000000 0.000000 -0.000000 4.137640"
Au       0.008977305486843      0.008977291044754      0.008977332836154
Au       0.022668416909846      2.077797219211016      2.107831367460962
Au       2.077797203790468      0.008977282266895      2.077797194629167
Au       2.107831361158338      2.077797227644313      0.022668443201605
4
q [0.5, 0.0, 0.5] , b 10 , f 0.801321 , div 4 / 20 (generated by Phonopy) Lattice="4.137640 0.000000 0.000000 -0.000000 4.137640 0.000000 0.000000 -0.000000 4.137640"
Au       0.008977305838107      0.008977291044755      0.008977332667290
Au       0.054009871694507      2.077797219647661      2.176585011455992
Au       2.077797203621604      0.008977282266895      2.077797194980432
Au       2.176585006951602      2.077797228208931      0.054009897866780
4
q [0.5, 0.0, 0.5] , b 10 , f 0.801321 , div 5 / 20 (generated by Phonopy) Lattice="4.137640 0.000000 0.000000 -0.000000 4.137640 0.000000 0.000000 -0.000000 4.137640"
Au       0.008977305959145      0.008977291044755      0.008977332735527
Au       0.080943224359961      2.077797220022893      2.235668615547452
Au       2.077797203689840      0.008977282266895      2.077797195101470
Au       2.235668613531453      2.077797228694136      0.080943250859456
4
q [0.5, 0.0, 0.5] , b 10 , f 0.801321 , div 6 / 20 (generated by Phonopy) Lattice="4.137640 0.000000 0.000000 -0.000000 4.137640 0.000000 0.000000 -0.000000 4.137640"
Au       0.008977305838107      0.008977291044755      0.008977333034184
Au       0.100832050691610      2.077797220299981      2.279298664907194
Au       2.077797203988497      0.008977282266895      2.077797194980432
Au       2.279298665826162      2.077797229052435      0.100832077933003
4
q [0.5, 0.0, 0.5] , b 10 , f 0.801321 , div 7 / 20 (generated by Phonopy) Lattice="4.137640 0.000000 0.000000 -0.000000 4.137640 0.000000 0.000000 -0.000000 4.137640"
Au       0.008977305486843      0.008977291044755      0.008977333534027
Au       0.111729493794512      2.077797220451803      2.303204346315457
Au       2.077797204488340      0.008977282266895      2.077797194629167
Au       2.303204350328672      2.077797229248753      0.111729522119857
4
q [0.5, 0.0, 0.5] , b 10 , f 0.801321 , div 8 / 20 (generated by Phonopy) Lattice="4.137640 0.000000 0.000000 -0.000000 4.137640 0.000000 0.000000 -0.000000 4.137640"
Au       0.008977304939735      0.008977291044755      0.008977334186128
Au       0.112568836010803      2.077797220463497      2.305045605115324
Au       2.077797205140441      0.008977282266895      2.077797194082060
Au       2.305045612079181      2.077797229263874      0.112568865656050
4
q [0.5, 0.0, 0.5] , b 10 , f 0.801321 , div 9 / 20 (generated by Phonopy) Lattice="4.137640 0.000000 0.000000 -0.000000 4.137640 0.000000 0.000000 -0.000000 4.137640"
Au       0.008977304250339      0.008977291044755      0.008977334926654
Au       0.103267916676313      2.077797220333918      2.284642206066661
Au       2.077797205880968      0.008977282266895      2.077797193392664
Au       2.284642215548724      2.077797229096317      0.103267947748210
4
q [0.5, 0.0, 0.5] , b 10 , f 0.801321 , div 10 / 20 (generated by Phonopy) Lattice="4.137640 0.000000 0.000000 -0.000000 4.137640 0.000000 0.000000 -0.000000 4.137640"
Au       0.008977303486138      0.008977291044755      0.008977335683119
Au       0.084737174578816      2.077797220075750      2.243991376027190
Au       2.077797206637432      0.008977282266895      2.077797192628462
Au       2.243991387348524      2.077797228762485      0.084737207044461
4
q [0.5, 0.0, 0.5] , b 10 , f 0.801321 , div 11 / 20 (generated by Phonopy) Lattice="4.137640 0.000000 0.000000 -0.000000 4.137640 0.000000 0.000000 -0.000000 4.137640"
Au       0.008977302721937      0.008977291044754      0.008977336381473
Au       0.058790527866087      2.077797219714264      2.187072301472162
Au       2.077797207335787      0.008977282266895      2.077797191864261
Au       2.187072313773792      2.077797228295055      0.058790561556148
4
q [0.5, 0.0, 0.5] , b 10 , f 0.801321 , div 12 / 20 (generated by Phonopy) Lattice="4.137640 0.000000 0.000000 -0.000000 4.137640 0.000000 0.000000 -0.000000 4.137640"
Au       0.008977302032541      0.008977291044754      0.008977336953357
Au       0.027967815099287      2.077797219284846      2.119456617997535
Au       2.077797207907671      0.008977282266895      2.077797191174865
Au       2.119456630324527      2.077797227739782      0.027967849724577
4
q [0.5, 0.0, 0.5] , b 10 , f 0.801321 , div 13 / 20 (generated by Phonopy) Lattice="4.137640 0.000000 0.000000 -0.000000 4.137640 0.000000 0.000000 -0.000000 4.137640"
Au       0.008977301485433      0.008977291044754      0.008977337342792
Au      -0.004713821841503      2.077797218829530      2.047763019807975
Au       2.077797208297105      0.008977282266895      2.077797190627757
Au       2.047763031202912      2.077797227151021     -0.004713786661716
4
q [0.5, 0.0, 0.5] , b 10 , f 0.801321 , div 14 / 20 (generated by Phonopy) Lattice="4.137640 0.000000 0.000000 -0.000000 4.137640 0.000000 0.000000 -0.000000 4.137640"
Au       0.008977301134168      0.008977291044754      0.008977337511655
Au      -0.036055276626164      2.077797218392885      1.979009375812945
Au       2.077797208465969      0.008977282266895      2.077797190276493
Au       1.979009385409648      2.077797226586403     -0.036055241326892
4
q [0.5, 0.0, 0.5] , b 10 , f 0.801321 , div 15 / 20 (generated by Phonopy) Lattice="4.137640 0.000000 0.000000 -0.000000 4.137640 0.000000 0.000000 -0.000000 4.137640"
Au       0.008977301013131      0.008977291044754      0.008977337443419
Au      -0.062988629291617      2.077797218017653      1.919925771721485
Au       2.077797208397733      0.008977282266895      2.077797190155455
Au       1.919925778829797      2.077797226101197     -0.062988594319568
4
q [0.5, 0.0, 0.5] , b 10 , f 0.801321 , div 16 / 20 (generated by Phonopy) Lattice="4.137640 0.000000 0.000000 -0.000000 4.137640 0.000000 0.000000 -0.000000 4.137640"
Au       0.008977301134168      0.008977291044754      0.008977337144762
Au      -0.082877455623266      2.077797217740565      1.876295722361743
Au       2.077797208099076      0.008977282266895      2.077797190276493
Au       1.876295726535088      2.077797225742899     -0.082877421393115
4
q [0.5, 0.0, 0.5] , b 10 , f 0.801321 , div 17 / 20 (generated by Phonopy) Lattice="4.137640 0.000000 0.000000 -0.000000 4.137640 0.000000 0.000000 -0.000000 4.137640"
Au       0.008977301485433      0.008977291044754      0.008977336644919
Au      -0.093774898726168      2.077797217588742      1.852390040953480
Au       2.077797207599232      0.008977282266895      2.077797190627757
Au       1.852390042032578      2.077797225546581     -0.093774865579969
4
q [0.5, 0.0, 0.5] , b 10 , f 0.801321 , div 18 / 20 (generated by Phonopy) Lattice="4.137640 0.000000 0.000000 -0.000000 4.137640 0.000000 0.000000 -0.000000 4.137640"
Au       0.008977302032541      0.008977291044754      0.008977335992818
Au      -0.094614240942460      2.077797217577049      1.850548782153612
Au       2.077797206947132      0.008977282266895      2.077797191174865
Au       1.850548780282069      2.077797225531460     -0.094614209116162
4
q [0.5, 0.0, 0.5] , b 10 , f 0.801321 , div 19 / 20 (generated by Phonopy) Lattice="4.137640 0.000000 0.000000 -0.000000 4.137640 0.000000 0.000000 -0.000000 4.137640"
Au       0.008977302721937      0.008977291044754      0.008977335252292
Au      -0.085313321607969      2.077797217706628      1.870952181202276
Au       2.077797206206605      0.008977282266895      2.077797191864261
Au       1.870952176812526      2.077797225699017     -0.085313291208322
