4
q [0.5, 0.0, 0.5] , b 2 , f 0.170195 , div 0 / 20 (generated by Phonopy) Lattice="4.137640 0.000000 0.000000 -0.000000 4.137640 0.000000 0.000000 -0.000000 4.137640"
Au       0.008977303486138      0.008977291044754      0.008977335093130
Au       0.008977298723699      2.077797219020273      2.077797193727827
Au       2.077797205865954      0.008977282266895      2.077797191226159
Au       2.077797196087266      2.077797227397667      0.008977327080417
4
q [0.5, 0.0, 0.5] , b 2 , f 0.170195 , div 1 / 20 (generated by Phonopy) Lattice="4.137640 0.000000 0.000000 -0.000000 4.137640 0.000000 0.000000 -0.000000 4.137640"
Au      -0.068275939120084      0.008977290792466     -0.000617996230443
Au       0.008977298611223      2.077797219020273      2.077797193487386
Au       2.087392537548061      0.008977281242665      2.155050434373110
Au       2.077797196327707      2.077797227397667      0.008977327192893
4
q [0.5, 0.0, 0.5] , b 2 , f 0.170195 , div 2 / 20 (generated by Phonopy) Lattice="4.137640 0.000000 0.000000 -0.000000 4.137640 0.000000 0.000000 -0.000000 4.137640"
Au      -0.137967096085017      0.008977290564873     -0.009274069669817
Au       0.008977298393318      2.077797219020273      2.077797193261342
Au       2.096048611327923      0.008977280318695      2.224741591963110
Au       2.077797196553751      2.077797227397667      0.008977327410798
4
q [0.5, 0.0, 0.5] , b 2 , f 0.170195 , div 3 / 20 (generated by Phonopy) Lattice="4.137640 0.000000 0.000000 -0.000000 4.137640 0.000000 0.000000 -0.000000 4.137640"
Au      -0.193274311398091      0.008977290384254     -0.016143568446338
Au       0.008977298091313      2.077797219020273      2.077797193071823
Au       2.102918110393556      0.008977279585428      2.280048807924402
Au       2.077797196743270      2.077797227397667      0.008977327712802
4
q [0.5, 0.0, 0.5] , b 2 , f 0.170195 , div 4 / 20 (generated by Phonopy) Lattice="4.137640 0.000000 0.000000 -0.000000 4.137640 0.000000 0.000000 -0.000000 4.137640"
Au      -0.228783729476436      0.008977290268290     -0.020554058157147
Au       0.008977297734772      2.077797219020273      2.077797192937379
Au       2.107328600313801      0.008977279114641      2.315558226610663
Au       2.077797196877714      2.077797227397667      0.008977328069344
4
q [0.5, 0.0, 0.5] , b 2 , f 0.170195 , div 5 / 20 (generated by Phonopy) Lattice="4.137640 0.000000 0.000000 -0.000000 4.137640 0.000000 0.000000 -0.000000 4.137640"
Au      -0.241019441069878      0.008977290228331     -0.022073809339662
Au       0.008977297358595      2.077797219020273      2.077797192871172
Au       2.108848351605574      0.008977278952419      2.327793938712214
Au       2.077797196943922      2.077797227397667      0.008977328445521
4
q [0.5, 0.0, 0.5] , b 2 , f 0.170195 , div 6 / 20 (generated by Phonopy) Lattice="4.137640 0.000000 0.000000 -0.000000 4.137640 0.000000 0.000000 -0.000000 4.137640"
Au      -0.228783729476436      0.008977290268290     -0.020554058159408
Au       0.008977296999604      2.077797219020273      2.077797192879681
Au       2.107328600423707      0.008977279114641      2.315558227477335
Au       2.077797196935413      2.077797227397667      0.008977328804512
4
q [0.5, 0.0, 0.5] , b 2 , f 0.170195 , div 7 / 20 (generated by Phonopy) Lattice="4.137640 0.000000 0.000000 -0.000000 4.137640 0.000000 0.000000 -0.000000 4.137640"
Au      -0.193274311398091      0.008977290384254     -0.016143568450637
Au       0.008977296692941      2.077797219020273      2.077797192962073
Au       2.102918110602610      0.008977279585428      2.280048809572909
Au       2.077797196853020      2.077797227397667      0.008977329111175
4
q [0.5, 0.0, 0.5] , b 2 , f 0.170195 , div 8 / 20 (generated by Phonopy) Lattice="4.137640 0.000000 0.000000 -0.000000 4.137640 0.000000 0.000000 -0.000000 4.137640"
Au      -0.137967096085017      0.008977290564873     -0.009274069675735
Au       0.008977296468623      2.077797219020273      2.077797193110285
Au       2.096048611615661      0.008977280318695      2.224741594232085
Au       2.077797196704808      2.077797227397667      0.008977329335493
4
q [0.5, 0.0, 0.5] , b 2 , f 0.170195 , div 9 / 20 (generated by Phonopy) Lattice="4.137640 0.000000 0.000000 -0.000000 4.137640 0.000000 0.000000 -0.000000 4.137640"
Au      -0.068275939120084      0.008977290792466     -0.000617996237399
Au       0.008977296348608      2.077797219020273      2.077797193309807
Au       2.087392537886317      0.008977281242665      2.155050437040450
Au       2.077797196505286      2.077797227397667      0.008977329455508
4
q [0.5, 0.0, 0.5] , b 2 , f 0.170195 , div 10 / 20 (generated by Phonopy) Lattice="4.137640 0.000000 0.000000 -0.000000 4.137640 0.000000 0.000000 -0.000000 4.137640"
Au       0.008977303486138      0.008977291044754      0.008977335085816
Au       0.008977296344645      2.077797219020273      2.077797193541110
Au       2.077797206221618      0.008977282266895      2.077797194030766
Au       2.077797196273984      2.077797227397667      0.008977329459471
4
q [0.5, 0.0, 0.5] , b 2 , f 0.170195 , div 11 / 20 (generated by Phonopy) Lattice="4.137640 0.000000 0.000000 -0.000000 4.137640 0.000000 0.000000 -0.000000 4.137640"
Au       0.086230546092359      0.008977291297043      0.018572666409388
Au       0.008977296457121      2.077797219020273      2.077797193781551
Au       2.068201874539512      0.008977283291124      2.000543950883815
Au       2.077797196033543      2.077797227397667      0.008977329346995
4
q [0.5, 0.0, 0.5] , b 2 , f 0.170195 , div 12 / 20 (generated by Phonopy) Lattice="4.137640 0.000000 0.000000 -0.000000 4.137640 0.000000 0.000000 -0.000000 4.137640"
Au       0.155921703057292      0.008977291524636      0.027228739848763
Au       0.008977296675026      2.077797219020273      2.077797194007594
Au       2.059545800759650      0.008977284215094      1.930852793293815
Au       2.077797195807499      2.077797227397667      0.008977329129090
4
q [0.5, 0.0, 0.5] , b 2 , f 0.170195 , div 13 / 20 (generated by Phonopy) Lattice="4.137640 0.000000 0.000000 -0.000000 4.137640 0.000000 0.000000 -0.000000 4.137640"
Au       0.211228918370367      0.008977291705255      0.034098238625284
Au       0.008977296977030      2.077797219020273      2.077797194197113
Au       2.052676301694017      0.008977284948361      1.875545577332523
Au       2.077797195617980      2.077797227397667      0.008977328827086
4
q [0.5, 0.0, 0.5] , b 2 , f 0.170195 , div 14 / 20 (generated by Phonopy) Lattice="4.137640 0.000000 0.000000 -0.000000 4.137640 0.000000 0.000000 -0.000000 4.137640"
Au       0.246738336448711      0.008977291821219      0.038508728336093
Au       0.008977297333571      2.077797219020273      2.077797194331557
Au       2.048265811773772      0.008977285419148      1.840036158646262
Au       2.077797195483536      2.077797227397667      0.008977328470545
4
q [0.5, 0.0, 0.5] , b 2 , f 0.170195 , div 15 / 20 (generated by Phonopy) Lattice="4.137640 0.000000 0.000000 -0.000000 4.137640 0.000000 0.000000 -0.000000 4.137640"
Au       0.258974048042153      0.008977291861178      0.040028479518607
Au       0.008977297709749      2.077797219020273      2.077797194397765
Au       2.046746060481999      0.008977285581370      1.827800446544711
Au       2.077797195417328      2.077797227397667      0.008977328094367
4
q [0.5, 0.0, 0.5] , b 2 , f 0.170195 , div 16 / 20 (generated by Phonopy) Lattice="4.137640 0.000000 0.000000 -0.000000 4.137640 0.000000 0.000000 -0.000000 4.137640"
Au       0.246738336448711      0.008977291821219      0.038508728338353
Au       0.008977298068739      2.077797219020273      2.077797194389256
Au       2.048265811663866      0.008977285419148      1.840036157779590
Au       2.077797195425837      2.077797227397667      0.008977327735377
4
q [0.5, 0.0, 0.5] , b 2 , f 0.170195 , div 17 / 20 (generated by Phonopy) Lattice="4.137640 0.000000 0.000000 -0.000000 4.137640 0.000000 0.000000 -0.000000 4.137640"
Au       0.211228918370367      0.008977291705255      0.034098238629583
Au       0.008977298375403      2.077797219020273      2.077797194306863
Au       2.052676301484963      0.008977284948361      1.875545575684016
Au       2.077797195508230      2.077797227397667      0.008977327428713
4
q [0.5, 0.0, 0.5] , b 2 , f 0.170195 , div 18 / 20 (generated by Phonopy) Lattice="4.137640 0.000000 0.000000 -0.000000 4.137640 0.000000 0.000000 -0.000000 4.137640"
Au       0.155921703057292      0.008977291524636      0.027228739854680
Au       0.008977298599721      2.077797219020273      2.077797194158652
Au       2.059545800471912      0.008977284215094      1.930852791024840
Au       2.077797195656442      2.077797227397667      0.008977327204395
4
q [0.5, 0.0, 0.5] , b 2 , f 0.170195 , div 19 / 20 (generated by Phonopy) Lattice="4.137640 0.000000 0.000000 -0.000000 4.137640 0.000000 0.000000 -0.000000 4.137640"
Au       0.086230546092359      0.008977291297043      0.018572666416344
Au       0.008977298719735      2.077797219020273      2.077797193959130
Au       2.068201874201256      0.008977283291124      2.000543948216475
Au       2.077797195855964      2.077797227397667      0.008977327084381
