4
q [0.5, 0.0, 0.5] , b 4 , f 0.170195 , div 0 / 20 (generated by Phonopy) Lattice="4.137640 0.000000 0.000000 -0.000000 4.137640 0.000000 0.000000 -0.000000 4.137640"
Au       0.008977303486138      0.008977291044754      0.008977335267699
Au       0.258026221990404      2.077797216617685      2.071336771118467
Au       2.077797205865560      0.008977282266894      2.077797192628462
Au       2.084257618380479      2.077797230669112     -0.240071601093166
4
q [0.5, 0.0, 0.5] , b 4 , f 0.170195 , div 1 / 20 (generated by Phonopy) Lattice="4.137640 0.000000 0.000000 -0.000000 4.137640 0.000000 0.000000 -0.000000 4.137640"
Au       0.008977303862593      0.008977291044754      0.008977335228224
Au       0.234297263617260      2.077797216846600      2.071952309065288
Au       2.077797205905035      0.008977282266895      2.077797192252008
Au       2.083642080547054      2.077797230357414     -0.216342645462725
4
q [0.5, 0.0, 0.5] , b 4 , f 0.170195 , div 2 / 20 (generated by Phonopy) Lattice="4.137640 0.000000 0.000000 -0.000000 4.137640 0.000000 0.000000 -0.000000 4.137640"
Au       0.008977304202198      0.008977291044754      0.008977335175167
Au       0.188512417067387      2.077797217288288      2.073139985037447
Au       2.077797205958092      0.008977282266895      2.077797191912403
Au       2.082454404708139      2.077797229755995     -0.170557800906761
4
q [0.5, 0.0, 0.5] , b 4 , f 0.170195 , div 3 / 20 (generated by Phonopy) Lattice="4.137640 0.000000 0.000000 -0.000000 4.137640 0.000000 0.000000 -0.000000 4.137640"
Au       0.008977304471710      0.008977291044754      0.008977335113723
Au       0.125153422122871      2.077797217899516      2.074783541035762
Au       2.077797206019537      0.008977282266895      2.077797191642891
Au       2.080810848849871      2.077797228923727     -0.107198807012182
4
q [0.5, 0.0, 0.5] , b 4 , f 0.170195 , div 4 / 20 (generated by Phonopy) Lattice="4.137640 0.000000 0.000000 -0.000000 4.137640 0.000000 0.000000 -0.000000 4.137640"
Au       0.008977304644747      0.008977291044754      0.008977335049904
Au       0.050422298656957      2.077797218620451      2.076722094347790
Au       2.077797206083355      0.008977282266895      2.077797191469853
Au       2.078872295670984      2.077797227942078     -0.032467683549458
4
q [0.5, 0.0, 0.5] , b 4 , f 0.170195 , div 5 / 20 (generated by Phonopy) Lattice="4.137640 0.000000 0.000000 -0.000000 4.137640 0.000000 0.000000 -0.000000 4.137640"
Au       0.008977304704371      0.008977291044754      0.008977334989958
Au      -0.028365750283158      2.077797219380523      2.078765885868656
Au       2.077797206143301      0.008977282266895      2.077797191410228
Au       2.076828504263323      2.077797226907138      0.046320366434527
4
q [0.5, 0.0, 0.5] , b 4 , f 0.170195 , div 6 / 20 (generated by Phonopy) Lattice="4.137640 0.000000 0.000000 -0.000000 4.137640 0.000000 0.000000 -0.000000 4.137640"
Au       0.008977304644747      0.008977291044754      0.008977334939754
Au      -0.103498401518600      2.077797220105332      2.080714855044365
Au       2.077797206193505      0.008977282266895      2.077797191469853
Au       2.074879535169800      2.077797225920214      0.121453019658716
4
q [0.5, 0.0, 0.5] , b 4 , f 0.170195 , div 7 / 20 (generated by Phonopy) Lattice="4.137640 0.000000 0.000000 -0.000000 4.137640 0.000000 0.000000 -0.000000 4.137640"
Au       0.008977304471710      0.008977291044754      0.008977334904206
Au      -0.167621147666480      2.077797220723927      2.082378223192729
Au       2.077797206229054      0.008977282266895      2.077797191642891
Au       2.073216167064556      2.077797225077914      0.185575768545550
4
q [0.5, 0.0, 0.5] , b 4 , f 0.170195 , div 8 / 20 (generated by Phonopy) Lattice="4.137640 0.000000 0.000000 -0.000000 4.137640 0.000000 0.000000 -0.000000 4.137640"
Au       0.008977304202198      0.008977291044754      0.008977334886792
Au      -0.214457207564402      2.077797221175757      2.083593168250022
Au       2.077797206246467      0.008977282266895      2.077797191912403
Au       2.072001222007100      2.077797224462687      0.232411831664523
4
q [0.5, 0.0, 0.5] , b 4 , f 0.170195 , div 9 / 20 (generated by Phonopy) Lattice="4.137640 0.000000 0.000000 -0.000000 4.137640 0.000000 0.000000 -0.000000 4.137640"
Au       0.008977303862593      0.008977291044754      0.008977334889218
Au      -0.239421941343539      2.077797221416593      2.084240762929015
Au       2.077797206244041      0.008977282266895      2.077797192252008
Au       2.071353627284676      2.077797224134756      0.257376568831510
4
q [0.5, 0.0, 0.5] , b 4 , f 0.170195 , div 10 / 20 (generated by Phonopy) Lattice="4.137640 0.000000 0.000000 -0.000000 4.137640 0.000000 0.000000 -0.000000 4.137640"
Au       0.008977303486138      0.008977291044754      0.008977334911247
Au      -0.240071626922060      2.077797221422860      2.084257616150470
Au       2.077797206222012      0.008977282266895      2.077797192628462
Au       2.071336773980771      2.077797224126222      0.258026257633055
4
q [0.5, 0.0, 0.5] , b 4 , f 0.170195 , div 11 / 20 (generated by Phonopy) Lattice="4.137640 0.000000 0.000000 -0.000000 4.137640 0.000000 0.000000 -0.000000 4.137640"
Au       0.008977303109683      0.008977291044754      0.008977334950722
Au      -0.216342668548916      2.077797221193946      2.083642078203648
Au       2.077797206182538      0.008977282266895      2.077797193004917
Au       2.071952311814196      2.077797224437920      0.234297302002613
4
q [0.5, 0.0, 0.5] , b 4 , f 0.170195 , div 12 / 20 (generated by Phonopy) Lattice="4.137640 0.000000 0.000000 -0.000000 4.137640 0.000000 0.000000 -0.000000 4.137640"
Au       0.008977302770078      0.008977291044754      0.008977335003778
Au      -0.170557821999043      2.077797220752258      2.082454402231490
Au       2.077797206129481      0.008977282266895      2.077797193344522
Au       2.073139987653111      2.077797225039338      0.188512457446650
4
q [0.5, 0.0, 0.5] , b 4 , f 0.170195 , div 13 / 20 (generated by Phonopy) Lattice="4.137640 0.000000 0.000000 -0.000000 4.137640 0.000000 0.000000 -0.000000 4.137640"
Au       0.008977302500566      0.008977291044754      0.008977335065223
Au      -0.107198827054527      2.077797220141030      2.080810846233175
Au       2.077797206068036      0.008977282266895      2.077797193614034
Au       2.074783543511379      2.077797225871606      0.125153463552071
4
q [0.5, 0.0, 0.5] , b 4 , f 0.170195 , div 14 / 20 (generated by Phonopy) Lattice="4.137640 0.000000 0.000000 -0.000000 4.137640 0.000000 0.000000 -0.000000 4.137640"
Au       0.008977302327529      0.008977291044754      0.008977335129042
Au      -0.032467703588613      2.077797219420095      2.078872292921147
Au       2.077797206004218      0.008977282266894      2.077797193787072
Au       2.076722096690266      2.077797226853256      0.050422340089346
4
q [0.5, 0.0, 0.5] , b 4 , f 0.170195 , div 15 / 20 (generated by Phonopy) Lattice="4.137640 0.000000 0.000000 -0.000000 4.137640 0.000000 0.000000 -0.000000 4.137640"
Au       0.008977302267904      0.008977291044754      0.008977335188987
Au       0.046320345351502      2.077797218660023      2.076828501400280
Au       2.077797205944272      0.008977282266894      2.077797193846696
Au       2.078765888097927      2.077797227888196     -0.028365709894639
4
q [0.5, 0.0, 0.5] , b 4 , f 0.170195 , div 16 / 20 (generated by Phonopy) Lattice="4.137640 0.000000 0.000000 -0.000000 4.137640 0.000000 0.000000 -0.000000 4.137640"
Au       0.008977302327529      0.008977291044754      0.008977335239191
Au       0.121452996586943      2.077797217935214      2.074879532224572
Au       2.077797205894068      0.008977282266894      2.077797193787072
Au       2.080714857191450      2.077797228875120     -0.103498363118828
4
q [0.5, 0.0, 0.5] , b 4 , f 0.170195 , div 17 / 20 (generated by Phonopy) Lattice="4.137640 0.000000 0.000000 -0.000000 4.137640 0.000000 0.000000 -0.000000 4.137640"
Au       0.008977302500566      0.008977291044754      0.008977335274740
Au       0.185575742734824      2.077797217316619      2.073216164076207
Au       2.077797205858519      0.008977282266894      2.077797193614034
Au       2.082378225296694      2.077797229717420     -0.167621112005662
4
q [0.5, 0.0, 0.5] , b 4 , f 0.170195 , div 18 / 20 (generated by Phonopy) Lattice="4.137640 0.000000 0.000000 -0.000000 4.137640 0.000000 0.000000 -0.000000 4.137640"
Au       0.008977302770078      0.008977291044754      0.008977335292154
Au       0.232411802632745      2.077797216864789      2.072001219018915
Au       2.077797205841105      0.008977282266894      2.077797193344522
Au       2.083593170354149      2.077797230332647     -0.214457175124635
4
q [0.5, 0.0, 0.5] , b 4 , f 0.170195 , div 19 / 20 (generated by Phonopy) Lattice="4.137640 0.000000 0.000000 -0.000000 4.137640 0.000000 0.000000 -0.000000 4.137640"
Au       0.008977303109683      0.008977291044754      0.008977335289727
Au       0.257376536411882      2.077797216623953      2.071353624339922
Au       2.077797205843532      0.008977282266894      2.077797193004917
Au       2.084240765076574      2.077797230660577     -0.239421912291622
