4
q [0.5, 0.0, 0.5] , b 6 , f 0.453528 , div 0 / 20 (generated by Phonopy) Lattice="4.137640 0.000000 0.000000 -0.000000 4.137640 0.000000 0.000000 -0.000000 4.137640"
Au       0.008977303486138      0.008977296323936      0.008977335089473
Au       0.008977297524855      2.078180966675959      2.077797193634112
Au       2.077797206043786      0.008977280857735      2.077797192628462
Au       2.077797196176206      2.078682234545862      0.008977328268446
4
q [0.5, 0.0, 0.5] , b 6 , f 0.453528 , div 1 / 20 (generated by Phonopy) Lattice="4.137640 0.000000 0.000000 -0.000000 4.137640 0.000000 0.000000 -0.000000 4.137640"
Au       0.008977303801667     -0.100365611964366      0.008977335279534
Au       0.008977297453615      2.089335546108950      2.077797193616906
Au       2.077797206005364      0.008977290266848      2.077797192615286
Au       2.077797196148114      2.084920912257786      0.008977328171264
4
q [0.5, 0.0, 0.5] , b 6 , f 0.453528 , div 2 / 20 (generated by Phonopy) Lattice="4.137640 0.000000 0.000000 -0.000000 4.137640 0.000000 0.000000 -0.000000 4.137640"
Au       0.008977304086310     -0.199005275069334      0.008977335450991
Au       0.008977297390260      2.099360673694248      2.077797193601418
Au       2.077797205970703      0.008977298892870      2.077797192603399
Au       2.077797196123204      2.090462274061971      0.008977328083741
4
q [0.5, 0.0, 0.5] , b 6 , f 0.453528 , div 3 / 20 (generated by Phonopy) Lattice="4.137640 0.000000 0.000000 -0.000000 4.137640 0.000000 0.000000 -0.000000 4.137640"
Au       0.008977304312204     -0.277286155503307      0.008977335587060
Au       0.008977297340992      2.107275020094635      2.077797193589166
Au       2.077797205943195      0.008977305891425      2.077797192593966
Au       2.077797196103915      2.094763892856085      0.008977328014446
4
q [0.5, 0.0, 0.5] , b 6 , f 0.453528 , div 4 / 20 (generated by Phonopy) Lattice="4.137640 0.000000 0.000000 -0.000000 4.137640 0.000000 0.000000 -0.000000 4.137640"
Au       0.008977304457237     -0.327545575274444      0.008977335674422
Au       0.008977297310634      2.112303873941946      2.077797193581349
Au       2.077797205925534      0.008977310577447      2.077797192587910
Au       2.077797196092135      2.097404696221420      0.008977327970160
4
q [0.5, 0.0, 0.5] , b 6 , f 0.453528 , div 5 / 20 (generated by Phonopy) Lattice="4.137640 0.000000 0.000000 -0.000000 4.137640 0.000000 0.000000 -0.000000 4.137640"
Au       0.008977304507212     -0.344863792197577      0.008977335704525
Au       0.008977297302157      2.113954975983522      2.077797193578731
Au       2.077797205919449      0.008977312492235      2.077797192585822
Au       2.077797196089017      2.098126183925018      0.008977327955219
4
q [0.5, 0.0, 0.5] , b 6 , f 0.453528 , div 6 / 20 (generated by Phonopy) Lattice="4.137640 0.000000 0.000000 -0.000000 4.137640 0.000000 0.000000 -0.000000 4.137640"
Au       0.008977304457237     -0.327545578537158      0.008977335674422
Au       0.008977297316392      2.112066704847629      2.077797193581569
Au       2.077797205925534      0.008977311448356      2.077797192587910
Au       2.077797196094866      2.096857731723549      0.008977327971086
4
q [0.5, 0.0, 0.5] , b 6 , f 0.453528 , div 7 / 20 (generated by Phonopy) Lattice="4.137640 0.000000 0.000000 -0.000000 4.137640 0.000000 0.000000 -0.000000 4.137640"
Au       0.008977304312204     -0.277286161709358      0.008977335587060
Au       0.008977297351944      2.106823897669406      2.077797193589585
Au       2.077797205943195      0.008977307547992      2.077797192593966
Au       2.077797196109110      2.093723504556321      0.008977328016207
4
q [0.5, 0.0, 0.5] , b 6 , f 0.453528 , div 8 / 20 (generated by Phonopy) Lattice="4.137640 0.000000 0.000000 -0.000000 4.137640 0.000000 0.000000 -0.000000 4.137640"
Au       0.008977304086310     -0.199005283611229      0.008977335450991
Au       0.008977297405334      2.098739756944244      2.077797193601995
Au       2.077797205970703      0.008977301172938      2.077797192603399
Au       2.077797196130354      2.089030302415905      0.008977328086166
4
q [0.5, 0.0, 0.5] , b 6 , f 0.453528 , div 9 / 20 (generated by Phonopy) Lattice="4.137640 0.000000 0.000000 -0.000000 4.137640 0.000000 0.000000 -0.000000 4.137640"
Au       0.008977303801667     -0.100365622005967      0.008977335279534
Au       0.008977297471336      2.088605614691842      2.077797193617583
Au       2.077797206005364      0.008977292947229      2.077797192615286
Au       2.077797196156519      2.083237528627269      0.008977328174114
4
q [0.5, 0.0, 0.5] , b 6 , f 0.453528 , div 10 / 20 (generated by Phonopy) Lattice="4.137640 0.000000 0.000000 -0.000000 4.137640 0.000000 0.000000 -0.000000 4.137640"
Au       0.008977303486138      0.008977285765572      0.008977335089473
Au       0.008977297543488      2.077413471364586      2.077797193634825
Au       2.077797206043786      0.008977283676054      2.077797192628462
Au       2.077797196185044      2.076912220249472      0.008977328271443
4
q [0.5, 0.0, 0.5] , b 6 , f 0.453528 , div 11 / 20 (generated by Phonopy) Lattice="4.137640 0.000000 0.000000 -0.000000 4.137640 0.000000 0.000000 -0.000000 4.137640"
Au       0.008977303170609      0.118320194053875      0.008977334899411
Au       0.008977297614729      2.066258891931596      2.077797193652031
Au       2.077797206082209      0.008977274266941      2.077797192641639
Au       2.077797196213136      2.070673542537548      0.008977328368625
4
q [0.5, 0.0, 0.5] , b 6 , f 0.453528 , div 12 / 20 (generated by Phonopy) Lattice="4.137640 0.000000 0.000000 -0.000000 4.137640 0.000000 0.000000 -0.000000 4.137640"
Au       0.008977302885965      0.216959857158843      0.008977334727954
Au       0.008977297678084      2.056233764346298      2.077797193667518
Au       2.077797206116870      0.008977265640919      2.077797192653525
Au       2.077797196238046      2.065132180733362      0.008977328456147
4
q [0.5, 0.0, 0.5] , b 6 , f 0.453528 , div 13 / 20 (generated by Phonopy) Lattice="4.137640 0.000000 0.000000 -0.000000 4.137640 0.000000 0.000000 -0.000000 4.137640"
Au       0.008977302660071      0.295240737592816      0.008977334591885
Au       0.008977297727352      2.048319417945911      2.077797193679770
Au       2.077797206144377      0.008977258642364      2.077797192662959
Au       2.077797196257335      2.060830561939248      0.008977328525443
4
q [0.5, 0.0, 0.5] , b 6 , f 0.453528 , div 14 / 20 (generated by Phonopy) Lattice="4.137640 0.000000 0.000000 -0.000000 4.137640 0.000000 0.000000 -0.000000 4.137640"
Au       0.008977302515039      0.345500157363953      0.008977334504524
Au       0.008977297757710      2.043290564098600      2.077797193687588
Au       2.077797206162038      0.008977253956342      2.077797192669015
Au       2.077797196269115      2.058189758573914      0.008977328569728
4
q [0.5, 0.0, 0.5] , b 6 , f 0.453528 , div 15 / 20 (generated by Phonopy) Lattice="4.137640 0.000000 0.000000 -0.000000 4.137640 0.000000 0.000000 -0.000000 4.137640"
Au       0.008977302465064      0.362818374287086      0.008977334474421
Au       0.008977297766187      2.041639462057024      2.077797193690206
Au       2.077797206168124      0.008977252041554      2.077797192671103
Au       2.077797196272233      2.057468270870316      0.008977328584669
4
q [0.5, 0.0, 0.5] , b 6 , f 0.453528 , div 16 / 20 (generated by Phonopy) Lattice="4.137640 0.000000 0.000000 -0.000000 4.137640 0.000000 0.000000 -0.000000 4.137640"
Au       0.008977302515039      0.345500160626667      0.008977334504524
Au       0.008977297751952      2.043527733192917      2.077797193687368
Au       2.077797206162038      0.008977253085433      2.077797192669015
Au       2.077797196266384      2.058736723071784      0.008977328568802
4
q [0.5, 0.0, 0.5] , b 6 , f 0.453528 , div 17 / 20 (generated by Phonopy) Lattice="4.137640 0.000000 0.000000 -0.000000 4.137640 0.000000 0.000000 -0.000000 4.137640"
Au       0.008977302660071      0.295240743798867      0.008977334591885
Au       0.008977297716400      2.048770540371140      2.077797193679352
Au       2.077797206144377      0.008977256985797      2.077797192662959
Au       2.077797196252140      2.061870950239013      0.008977328523681
4
q [0.5, 0.0, 0.5] , b 6 , f 0.453528 , div 18 / 20 (generated by Phonopy) Lattice="4.137640 0.000000 0.000000 -0.000000 4.137640 0.000000 0.000000 -0.000000 4.137640"
Au       0.008977302885965      0.216959865700738      0.008977334727954
Au       0.008977297663009      2.056854681096302      2.077797193666942
Au       2.077797206116870      0.008977263360851      2.077797192653525
Au       2.077797196230896      2.066564152379428      0.008977328453722
4
q [0.5, 0.0, 0.5] , b 6 , f 0.453528 , div 19 / 20 (generated by Phonopy) Lattice="4.137640 0.000000 0.000000 -0.000000 4.137640 0.000000 0.000000 -0.000000 4.137640"
Au       0.008977303170609      0.118320204095476      0.008977334899411
Au       0.008977297597008      2.066988823348704      2.077797193651354
Au       2.077797206082209      0.008977271586560      2.077797192641639
Au       2.077797196204731      2.072356926168065      0.008977328365774
