4
q [0.5, 0.0, 0.5] , b 7 , f 0.453528 , div 0 / 20 (generated by Phonopy) Lattice="4.137640 0.000000 0.000000 -0.000000 4.137640 0.000000 0.000000 -0.000000 4.137640"
Au       0.008977303486138      0.008977283361968      0.008977335089473
Au       0.008977299238024      2.169921377263903      2.077797193413633
Au       2.077797206043786      0.008977283443250      2.077797192628462
Au       2.077797197101259      1.905500025982883      0.008977326851427
4
q [0.5, 0.0, 0.5] , b 7 , f 0.453528 , div 1 / 20 (generated by Phonopy) Lattice="4.137640 0.000000 0.000000 -0.000000 4.137640 0.000000 0.000000 -0.000000 4.137640"
Au       0.008977303486138      0.008977285691088      0.008977335089473
Au       0.008977299941820      2.211288087502301      2.077797193316576
Au       2.077797206043786      0.008977283039125      2.077797192628462
Au       2.077797197483834      1.834117543236211      0.008977326230935
4
q [0.5, 0.0, 0.5] , b 7 , f 0.453528 , div 2 / 20 (generated by Phonopy) Lattice="4.137640 0.000000 0.000000 -0.000000 4.137640 0.000000 0.000000 -0.000000 4.137640"
Au       0.008977303486138      0.008977288544262      0.008977335089473
Au       0.008977300409938      2.239587781448106      2.077797193250636
Au       2.077797206043786      0.008977282559409      2.077797192628462
Au       2.077797197738842      1.786588125791455      0.008977325810036
4
q [0.5, 0.0, 0.5] , b 7 , f 0.453528 , div 3 / 20 (generated by Phonopy) Lattice="4.137640 0.000000 0.000000 -0.000000 4.137640 0.000000 0.000000 -0.000000 4.137640"
Au       0.008977303486138      0.008977291642201      0.008977335089473
Au       0.008977300596556      2.252050287882342      2.077797193222269
Au       2.077797206043786      0.008977282051059      2.077797192628462
Au       2.077797197841321      1.767564284185033      0.008977325629929
4
q [0.5, 0.0, 0.5] , b 7 , f 0.453528 , div 4 / 20 (generated by Phonopy) Lattice="4.137640 0.000000 0.000000 -0.000000 4.137640 0.000000 0.000000 -0.000000 4.137640"
Au       0.008977303486138      0.008977294681659      0.008977335089473
Au       0.008977300483407      2.247455689843838      2.077797193234250
Au       2.077797206043786      0.008977281563837      2.077797192628462
Au       2.077797197781239      1.778908204580279      0.008977325708246
4
q [0.5, 0.0, 0.5] , b 7 , f 0.453528 , div 5 / 20 (generated by Phonopy) Lattice="4.137640 0.000000 0.000000 -0.000000 4.137640 0.000000 0.000000 -0.000000 4.137640"
Au       0.008977303486138      0.008977297365110      0.008977335089473
Au       0.008977300081566      2.226253738601049      2.077797193285408
Au       2.077797206043786      0.008977281145436      2.077797192628462
Au       2.077797197564478      1.819509465011165      0.008977326037319
4
q [0.5, 0.0, 0.5] , b 7 , f 0.453528 , div 6 / 20 (generated by Phonopy) Lattice="4.137640 0.000000 0.000000 -0.000000 4.137640 0.000000 0.000000 -0.000000 4.137640"
Au       0.008977303486138      0.008977299429882      0.008977335089473
Au       0.008977299430368      2.190519828864300      2.077797193370734
Au       2.077797206043786      0.008977280836810      2.077797192628462
Au       2.077797197212256      1.885393731221101      0.008977326584937
4
q [0.5, 0.0, 0.5] , b 7 , f 0.453528 , div 7 / 20 (generated by Phonopy) Lattice="4.137640 0.000000 0.000000 -0.000000 4.137640 0.000000 0.000000 -0.000000 4.137640"
Au       0.008977303486138      0.008977300673858      0.008977335089473
Au       0.008977298593557      2.143751844691414      2.077797193481876
Au       2.077797206043786      0.008977280668171      2.077797192628462
Au       2.077797196759050      1.970111792190784      0.008977327297496
4
q [0.5, 0.0, 0.5] , b 7 , f 0.453528 , div 8 / 20 (generated by Phonopy) Lattice="4.137640 0.000000 0.000000 -0.000000 4.137640 0.000000 0.000000 -0.000000 4.137640"
Au       0.008977303486138      0.008977300975271      0.008977335089473
Au       0.008977297653047      2.090527762224938      2.077797193607955
Au       2.077797206043786      0.008977280656026      2.077797192628462
Au       2.077797196249225      2.065370853847062      0.008977328105244
4
q [0.5, 0.0, 0.5] , b 7 , f 0.453528 , div 9 / 20 (generated by Phonopy) Lattice="4.137640 0.000000 0.000000 -0.000000 4.137640 0.000000 0.000000 -0.000000 4.137640"
Au       0.008977303486138      0.008977300304616      0.008977335089473
Au       0.008977296700900      2.036057525490679      2.077797193736630
Au       2.077797206043786      0.008977280801564      2.077797192628462
Au       2.077797195732684      2.161846295526108      0.008977328929115
4
q [0.5, 0.0, 0.5] , b 7 , f 0.453528 , div 10 / 20 (generated by Phonopy) Lattice="4.137640 0.000000 0.000000 -0.000000 4.137640 0.000000 0.000000 -0.000000 4.137640"
Au       0.008977303486138      0.008977298727541      0.008977335089473
Au       0.008977295830319      1.985673060776642      2.077797193855304
Au       2.077797206043786      0.008977281090539      2.077797192628462
Au       2.077797195259991      2.250094428812450      0.008977329688461
4
q [0.5, 0.0, 0.5] , b 7 , f 0.453528 , div 11 / 20 (generated by Phonopy) Lattice="4.137640 0.000000 0.000000 -0.000000 4.137640 0.000000 0.000000 -0.000000 4.137640"
Au       0.008977303486138      0.008977296398421      0.008977335089473
Au       0.008977295126524      1.944306350538245      2.077797193952361
Au       2.077797206043786      0.008977281494664      2.077797192628462
Au       2.077797194877416      2.321476911559123      0.008977330308953
4
q [0.5, 0.0, 0.5] , b 7 , f 0.453528 , div 12 / 20 (generated by Phonopy) Lattice="4.137640 0.000000 0.000000 -0.000000 4.137640 0.000000 0.000000 -0.000000 4.137640"
Au       0.008977303486138      0.008977293545247      0.008977335089473
Au       0.008977294658405      1.916006656592440      2.077797194018300
Au       2.077797206043786      0.008977281974380      2.077797192628462
Au       2.077797194622408      2.369006329003878      0.008977330729853
4
q [0.5, 0.0, 0.5] , b 7 , f 0.453528 , div 13 / 20 (generated by Phonopy) Lattice="4.137640 0.000000 0.000000 -0.000000 4.137640 0.000000 0.000000 -0.000000 4.137640"
Au       0.008977303486138      0.008977290447308      0.008977335089473
Au       0.008977294471787      1.903544150158204      2.077797194046668
Au       2.077797206043786      0.008977282482730      2.077797192628462
Au       2.077797194519929      2.388030170610301      0.008977330909959
4
q [0.5, 0.0, 0.5] , b 7 , f 0.453528 , div 14 / 20 (generated by Phonopy) Lattice="4.137640 0.000000 0.000000 -0.000000 4.137640 0.000000 0.000000 -0.000000 4.137640"
Au       0.008977303486138      0.008977287407850      0.008977335089473
Au       0.008977294584937      1.908138748196708      2.077797194034686
Au       2.077797206043786      0.008977282969952      2.077797192628462
Au       2.077797194580011      2.376686250215055      0.008977330831643
4
q [0.5, 0.0, 0.5] , b 7 , f 0.453528 , div 15 / 20 (generated by Phonopy) Lattice="4.137640 0.000000 0.000000 -0.000000 4.137640 0.000000 0.000000 -0.000000 4.137640"
Au       0.008977303486138      0.008977284724399      0.008977335089473
Au       0.008977294986778      1.929340699439497      2.077797193983529
Au       2.077797206043786      0.008977283388353      2.077797192628462
Au       2.077797194796772      2.336084989784168      0.008977330502569
4
q [0.5, 0.0, 0.5] , b 7 , f 0.453528 , div 16 / 20 (generated by Phonopy) Lattice="4.137640 0.000000 0.000000 -0.000000 4.137640 0.000000 0.000000 -0.000000 4.137640"
Au       0.008977303486138      0.008977282659627      0.008977335089473
Au       0.008977295637976      1.965074609176245      2.077797193898203
Au       2.077797206043786      0.008977283696979      2.077797192628462
Au       2.077797195148994      2.270200723574233      0.008977329954951
4
q [0.5, 0.0, 0.5] , b 7 , f 0.453528 , div 17 / 20 (generated by Phonopy) Lattice="4.137640 0.000000 0.000000 -0.000000 4.137640 0.000000 0.000000 -0.000000 4.137640"
Au       0.008977303486138      0.008977281415651      0.008977335089473
Au       0.008977296474786      2.011842593349132      2.077797193787061
Au       2.077797206043786      0.008977283865618      2.077797192628462
Au       2.077797195602200      2.185482662604549      0.008977329242392
4
q [0.5, 0.0, 0.5] , b 7 , f 0.453528 , div 18 / 20 (generated by Phonopy) Lattice="4.137640 0.000000 0.000000 -0.000000 4.137640 0.000000 0.000000 -0.000000 4.137640"
Au       0.008977303486138      0.008977281114238      0.008977335089473
Au       0.008977297415297      2.065066675815608      2.077797193660981
Au       2.077797206043786      0.008977283877763      2.077797192628462
Au       2.077797196112025      2.090223600948272      0.008977328434644
4
q [0.5, 0.0, 0.5] , b 7 , f 0.453528 , div 19 / 20 (generated by Phonopy) Lattice="4.137640 0.000000 0.000000 -0.000000 4.137640 0.000000 0.000000 -0.000000 4.137640"
Au       0.008977303486138      0.008977281784893      0.008977335089473
Au       0.008977298367444      2.119536912549866      2.077797193532307
Au       2.077797206043786      0.008977283732225      2.077797192628462
Au       2.077797196628566      1.993748159269226      0.008977327610773
