4
q [0.5, 0.0, 0.5] , b 5 , f 0.453528 , div 0 / 20 (generated by Phonopy) Lattice="4.137640 0.000000 0.000000 -0.000000 4.137640 0.000000 0.000000 -0.000000 4.137640"
Au       0.008977303486138      0.008977269125677      0.008977335089473
Au       0.008977297613623      2.074524512525030      2.077797193637505
Au       2.077797206043786      0.008977287774586      2.077797192628462
Au       2.077797196218309      2.070249763133462      0.008977328282725
4
q [0.5, 0.0, 0.5] , b 5 , f 0.453528 , div 1 / 20 (generated by Phonopy) Lattice="4.137640 0.000000 0.000000 -0.000000 4.137640 0.000000 0.000000 -0.000000 4.137640"
Au       0.008977303523137     -0.003844441698999      0.008977335111760
Au       0.008977298221159      1.979398833934114      2.077797193784241
Au       2.077797206039281      0.008977287738741      2.077797192626917
Au       2.077797196457879      2.017046643581307      0.008977329111488
4
q [0.5, 0.0, 0.5] , b 5 , f 0.453528 , div 2 / 20 (generated by Phonopy) Lattice="4.137640 0.000000 0.000000 -0.000000 4.137640 0.000000 0.000000 -0.000000 4.137640"
Au       0.008977303556515     -0.015411071988451      0.008977335131865
Au       0.008977298761447      1.893905074857293      2.077797193916317
Au       2.077797206035216      0.008977287167275      2.077797192625523
Au       2.077797196670308      1.969790214447303      0.008977329857874
4
q [0.5, 0.0, 0.5] , b 5 , f 0.453528 , div 3 / 20 (generated by Phonopy) Lattice="4.137640 0.000000 0.000000 -0.000000 4.137640 0.000000 0.000000 -0.000000 4.137640"
Au       0.008977303583004     -0.024590399380495      0.008977335147821
Au       0.008977299181601      1.826411960103053      2.077797194020802
Au       2.077797206031991      0.008977286116125      2.077797192624417
Au       2.077797196834805      1.933106264269991      0.008977330448823
4
q [0.5, 0.0, 0.5] , b 5 , f 0.453528 , div 4 / 20 (generated by Phonopy) Lattice="4.137640 0.000000 0.000000 -0.000000 4.137640 0.000000 0.000000 -0.000000 4.137640"
Au       0.008977303600010     -0.030483887353865      0.008977335158065
Au       0.008977299440494      1.783526185995720      2.077797194087471
Au       2.077797206029920      0.008977284688185      2.077797192623707
Au       2.077797196935266      1.910585673684834      0.008977330826489
4
q [0.5, 0.0, 0.5] , b 5 , f 0.453528 , div 5 / 20 (generated by Phonopy) Lattice="4.137640 0.000000 0.000000 -0.000000 4.137640 0.000000 0.000000 -0.000000 4.137640"
Au       0.008977303605871     -0.032514640243381      0.008977335161595
Au       0.008977299512782      1.769445710907678      2.077797194109797
Au       2.077797206029206      0.008977283023233      2.077797192623462
Au       2.077797196961857      1.904432915008490      0.008977330953901
4
q [0.5, 0.0, 0.5] , b 5 , f 0.453528 , div 6 / 20 (generated by Phonopy) Lattice="4.137640 0.000000 0.000000 -0.000000 4.137640 0.000000 0.000000 -0.000000 4.137640"
Au       0.008977303600010     -0.030483873807130      0.008977335158065
Au       0.008977299391390      1.785548829844982      2.077797194085594
Au       2.077797206029920      0.008977281284245      2.077797192623707
Au       2.077797196911976      1.915250263128988      0.008977330818590
4
q [0.5, 0.0, 0.5] , b 5 , f 0.453528 , div 7 / 20 (generated by Phonopy) Lattice="4.137640 0.000000 0.000000 -0.000000 4.137640 0.000000 0.000000 -0.000000 4.137640"
Au       0.008977303583004     -0.024590373613074      0.008977335147821
Au       0.008977299088200      1.830259257329024      2.077797194017232
Au       2.077797206031991      0.008977279641446      2.077797192624417
Au       2.077797196790505      1.941978840643400      0.008977330433799
4
q [0.5, 0.0, 0.5] , b 5 , f 0.453528 , div 8 / 20 (generated by Phonopy) Lattice="4.137640 0.000000 0.000000 -0.000000 4.137640 0.000000 0.000000 -0.000000 4.137640"
Au       0.008977303556515     -0.015411036522638      0.008977335131865
Au       0.008977298632892      1.899200425201799      2.077797193911402
Au       2.077797206035216      0.008977278255643      2.077797192625523
Au       2.077797196609334      1.982002268155663      0.008977329837195
4
q [0.5, 0.0, 0.5] , b 5 , f 0.453528 , div 9 / 20 (generated by Phonopy) Lattice="4.137640 0.000000 0.000000 -0.000000 4.137640 0.000000 0.000000 -0.000000 4.137640"
Au       0.008977303523137     -0.003844400006435      0.008977335111760
Au       0.008977298070033      1.985623891610559      2.077797193778464
Au       2.077797206039281      0.008977277262490      2.077797192626917
Au       2.077797196386199      2.031402773721261      0.008977329087177
4
q [0.5, 0.0, 0.5] , b 5 , f 0.453528 , div 10 / 20 (generated by Phonopy) Lattice="4.137640 0.000000 0.000000 -0.000000 4.137640 0.000000 0.000000 -0.000000 4.137640"
Au       0.008977303486138      0.008977312963832      0.008977335089473
Au       0.008977297454720      2.081069925515516      2.077797193631431
Au       2.077797206043786      0.008977276759203      2.077797192628462
Au       2.077797196142941      2.085344691661872      0.008977328257163
4
q [0.5, 0.0, 0.5] , b 5 , f 0.453528 , div 11 / 20 (generated by Phonopy) Lattice="4.137640 0.000000 0.000000 -0.000000 4.137640 0.000000 0.000000 -0.000000 4.137640"
Au       0.008977303449138      0.021799023788508      0.008977335067186
Au       0.008977296847185      2.176195604106432      2.077797193484695
Au       2.077797206048292      0.008977276795048      2.077797192630007
Au       2.077797195903371      2.138547811214027      0.008977327428401
4
q [0.5, 0.0, 0.5] , b 5 , f 0.453528 , div 12 / 20 (generated by Phonopy) Lattice="4.137640 0.000000 0.000000 -0.000000 4.137640 0.000000 0.000000 -0.000000 4.137640"
Au       0.008977303415761      0.033365654077960      0.008977335047081
Au       0.008977296306896      2.261689363183252      2.077797193352620
Au       2.077797206052356      0.008977277366514      2.077797192631401
Au       2.077797195690942      2.185804240348030      0.008977326682014
4
q [0.5, 0.0, 0.5] , b 5 , f 0.453528 , div 13 / 20 (generated by Phonopy) Lattice="4.137640 0.000000 0.000000 -0.000000 4.137640 0.000000 0.000000 -0.000000 4.137640"
Au       0.008977303389272      0.042544981470004      0.008977335031125
Au       0.008977295886742      2.329182477937493      2.077797193248134
Au       2.077797206055582      0.008977278417664      2.077797192632508
Au       2.077797195526445      2.222488190525343      0.008977326091065
4
q [0.5, 0.0, 0.5] , b 5 , f 0.453528 , div 14 / 20 (generated by Phonopy) Lattice="4.137640 0.000000 0.000000 -0.000000 4.137640 0.000000 0.000000 -0.000000 4.137640"
Au       0.008977303372265      0.048438469443374      0.008977335020881
Au       0.008977295627850      2.372068252044826      2.077797193181465
Au       2.077797206057653      0.008977279845604      2.077797192633218
Au       2.077797195425984      2.245008781110499      0.008977325713400
4
q [0.5, 0.0, 0.5] , b 5 , f 0.453528 , div 15 / 20 (generated by Phonopy) Lattice="4.137640 0.000000 0.000000 -0.000000 4.137640 0.000000 0.000000 -0.000000 4.137640"
Au       0.008977303366405      0.050469222332890      0.008977335017351
Au       0.008977295555562      2.386148727132868      2.077797193159140
Au       2.077797206058366      0.008977281510556      2.077797192633462
Au       2.077797195399393      2.251161539786844      0.008977325585987
4
q [0.5, 0.0, 0.5] , b 5 , f 0.453528 , div 16 / 20 (generated by Phonopy) Lattice="4.137640 0.000000 0.000000 -0.000000 4.137640 0.000000 0.000000 -0.000000 4.137640"
Au       0.008977303372265      0.048438455896639      0.008977335020881
Au       0.008977295676954      2.370045608195563      2.077797193183343
Au       2.077797206057653      0.008977283249544      2.077797192633218
Au       2.077797195449274      2.240344191666345      0.008977325721298
4
q [0.5, 0.0, 0.5] , b 5 , f 0.453528 , div 17 / 20 (generated by Phonopy) Lattice="4.137640 0.000000 0.000000 -0.000000 4.137640 0.000000 0.000000 -0.000000 4.137640"
Au       0.008977303389272      0.042544955702583      0.008977335031125
Au       0.008977295980143      2.325335180711521      2.077797193251705
Au       2.077797206055582      0.008977284892343      2.077797192632508
Au       2.077797195570745      2.213615614151934      0.008977326106089
4
q [0.5, 0.0, 0.5] , b 5 , f 0.453528 , div 18 / 20 (generated by Phonopy) Lattice="4.137640 0.000000 0.000000 -0.000000 4.137640 0.000000 0.000000 -0.000000 4.137640"
Au       0.008977303415761      0.033365618612147      0.008977335047081
Au       0.008977296435452      2.256394012838746      2.077797193357534
Au       2.077797206052356      0.008977286278146      2.077797192631401
Au       2.077797195751915      2.173592186639671      0.008977326702693
4
q [0.5, 0.0, 0.5] , b 5 , f 0.453528 , div 19 / 20 (generated by Phonopy) Lattice="4.137640 0.000000 0.000000 -0.000000 4.137640 0.000000 0.000000 -0.000000 4.137640"
Au       0.008977303449138      0.021798982095944      0.008977335067186
Au       0.008977296998311      2.169970546429987      2.077797193490472
Au       2.077797206048292      0.008977287271299      2.077797192630007
Au       2.077797195975051      2.124191681074073      0.008977327452711
