4
q [0.5, 0.0, 0.5] , b 1 , f 0.170195 , div 0 / 20 (generated by Phonopy) Lattice="4.137640 0.000000 0.000000 -0.000000 4.137640 0.000000 0.000000 -0.000000 4.137640"
Au       0.008977303486138      0.008977291044754      0.008977334312560
Au       0.008736215690113      2.077797219003059      2.068503485265591
Au       2.077797206820700      0.008977282266895      2.077797192628462
Au       2.087090914690412      2.077797227445664      0.009218410373589
4
q [0.5, 0.0, 0.5] , b 1 , f 0.170195 , div 1 / 20 (generated by Phonopy) Lattice="4.137640 0.000000 0.000000 -0.000000 4.137640 0.000000 0.000000 -0.000000 4.137640"
Au       0.008977303222884      0.008977291044754      0.008977334535500
Au       0.010765337614078      2.077797219147947      2.146726024762898
Au       2.077797206597760      0.008977282266895      2.077797192891716
Au       2.008868375866105      2.077797227041681      0.007189288496317
4
q [0.5, 0.0, 0.5] , b 1 , f 0.170195 , div 2 / 20 (generated by Phonopy) Lattice="4.137640 0.000000 0.000000 -0.000000 4.137640 0.000000 0.000000 -0.000000 4.137640"
Au       0.008977302985399      0.008977291044754      0.008977334812667
Au       0.012619433717015      2.077797219280338      2.218201330013946
Au       2.077797206320593      0.008977282266895      2.077797193129201
Au       1.937393070229513      2.077797226672544      0.005335192410094
4
q [0.5, 0.0, 0.5] , b 1 , f 0.170195 , div 3 / 20 (generated by Phonopy) Lattice="4.137640 0.000000 0.000000 -0.000000 4.137640 0.000000 0.000000 -0.000000 4.137640"
Au       0.008977302796931      0.008977291044754      0.008977335116929
Au       0.014117012154119      2.077797219387272      2.275932900143031
Au       2.077797206016330      0.008977282266895      2.077797193317670
Au       1.879661498694085      2.077797226374387      0.003837613958085
4
q [0.5, 0.0, 0.5] , b 1 , f 0.170195 , div 4 / 20 (generated by Phonopy) Lattice="4.137640 0.000000 0.000000 -0.000000 4.137640 0.000000 0.000000 -0.000000 4.137640"
Au       0.008977302675926      0.008977291044754      0.008977335418504
Au       0.015111479513726      2.077797219458281      2.314269566826416
Au       2.077797205714755      0.008977282266895      2.077797193438674
Au       1.841324829721218      2.077797226176396      0.002843146553417
4
q [0.5, 0.0, 0.5] , b 1 , f 0.170195 , div 5 / 20 (generated by Phonopy) Lattice="4.137640 0.000000 0.000000 -0.000000 4.137640 0.000000 0.000000 -0.000000 4.137640"
Au       0.008977302634231      0.008977291044754      0.008977335687872
Au       0.015505490401815      2.077797219486415      2.329458670021868
Au       2.077797205445388      0.008977282266895      2.077797193480369
Au       1.826135723577257      2.077797226097951      0.002449135594519
4
q [0.5, 0.0, 0.5] , b 1 , f 0.170195 , div 6 / 20 (generated by Phonopy) Lattice="4.137640 0.000000 0.000000 -0.000000 4.137640 0.000000 0.000000 -0.000000 4.137640"
Au       0.008977302675926      0.008977291044754      0.008977335898663
Au       0.015260476287425      2.077797219468920      2.320013394479911
Au       2.077797205234596      0.008977282266895      2.077797193438674
Au       1.835580995800296      2.077797226146731      0.002694149619285
4
q [0.5, 0.0, 0.5] , b 1 , f 0.170195 , div 7 / 20 (generated by Phonopy) Lattice="4.137640 0.000000 0.000000 -0.000000 4.137640 0.000000 0.000000 -0.000000 4.137640"
Au       0.008977302796931      0.008977291044754      0.008977336030246
Au       0.014400420859186      2.077797219407508      2.286858309579697
Au       2.077797205103014      0.008977282266895      2.077797193317670
Au       1.868736077336064      2.077797226317962      0.003554204947858
4
q [0.5, 0.0, 0.5] , b 1 , f 0.170195 , div 8 / 20 (generated by Phonopy) Lattice="4.137640 0.000000 0.000000 -0.000000 4.137640 0.000000 0.000000 -0.000000 4.137640"
Au       0.008977302985399      0.008977291044754      0.008977336069739
Au       0.013009512334772      2.077797219308191      2.233238866036318
Au       2.077797205063520      0.008977282266895      2.077797193129201
Au       1.922355517798804      2.077797226594882      0.004945113372318
4
q [0.5, 0.0, 0.5] , b 1 , f 0.170195 , div 9 / 20 (generated by Phonopy) Lattice="4.137640 0.000000 0.000000 -0.000000 4.137640 0.000000 0.000000 -0.000000 4.137640"
Au       0.008977303222884      0.008977291044754      0.008977336013277
Au       0.011223902531584      2.077797219180691      2.164403708572431
Au       2.077797205119983      0.008977282266895      2.077797192891716
Au       1.991190672767413      2.077797226950384      0.006730723085051
4
q [0.5, 0.0, 0.5] , b 1 , f 0.170195 , div 10 / 20 (generated by Phonopy) Lattice="4.137640 0.000000 0.000000 -0.000000 4.137640 0.000000 0.000000 -0.000000 4.137640"
Au       0.008977303486138      0.008977291044754      0.008977335866386
Au       0.009218379378231      2.077797219037487      2.087090902003345
Au       2.077797205266873      0.008977282266895      2.077797192628462
Au       2.068503477670838      2.077797227349669      0.008736246166300
4
q [0.5, 0.0, 0.5] , b 1 , f 0.170195 , div 11 / 20 (generated by Phonopy) Lattice="4.137640 0.000000 0.000000 -0.000000 4.137640 0.000000 0.000000 -0.000000 4.137640"
Au       0.008977303749392      0.008977291044754      0.008977335643446
Au       0.007189257454265      2.077797218892599      2.008868362506040
Au       2.077797205489813      0.008977282266895      2.077797192365209
Au       2.146726016495145      2.077797227753653      0.010765368043571
4
q [0.5, 0.0, 0.5] , b 1 , f 0.170195 , div 12 / 20 (generated by Phonopy) Lattice="4.137640 0.000000 0.000000 -0.000000 4.137640 0.000000 0.000000 -0.000000 4.137640"
Au       0.008977303986876      0.008977291044754      0.008977335366279
Au       0.005335161351329      2.077797218760208      1.937393057254990
Au       2.077797205766980      0.008977282266895      2.077797192127724
Au       2.218201322131736      2.077797228122790      0.012619464129794
4
q [0.5, 0.0, 0.5] , b 1 , f 0.170195 , div 13 / 20 (generated by Phonopy) Lattice="4.137640 0.000000 0.000000 -0.000000 4.137640 0.000000 0.000000 -0.000000 4.137640"
Au       0.008977304175345      0.008977291044754      0.008977335062016
Au       0.003837582914224      2.077797218653274      1.879661487125905
Au       2.077797206071243      0.008977282266895      2.077797191939255
Au       2.275932893667165      2.077797228420947      0.014117042581803
4
q [0.5, 0.0, 0.5] , b 1 , f 0.170195 , div 14 / 20 (generated by Phonopy) Lattice="4.137640 0.000000 0.000000 -0.000000 4.137640 0.000000 0.000000 -0.000000 4.137640"
Au       0.008977304296349      0.008977291044754      0.008977334760441
Au       0.002843115554617      2.077797218582265      1.841324820442521
Au       2.077797206372818      0.008977282266895      2.077797191818251
Au       2.314269562640031      2.077797228618938      0.015111509986471
4
q [0.5, 0.0, 0.5] , b 1 , f 0.170195 , div 15 / 20 (generated by Phonopy) Lattice="4.137640 0.000000 0.000000 -0.000000 4.137640 0.000000 0.000000 -0.000000 4.137640"
Au       0.008977304338045      0.008977291044755      0.008977334491074
Au       0.002449104666528      2.077797218554131      1.826135717247069
Au       2.077797206642185      0.008977282266895      2.077797191776555
Au       2.329458668783993      2.077797228697383      0.015505520945369
4
q [0.5, 0.0, 0.5] , b 1 , f 0.170195 , div 16 / 20 (generated by Phonopy) Lattice="4.137640 0.000000 0.000000 -0.000000 4.137640 0.000000 0.000000 -0.000000 4.137640"
Au       0.008977304296349      0.008977291044755      0.008977334280282
Au       0.002694118780918      2.077797218571626      1.835580992789025
Au       2.077797206852977      0.008977282266895      2.077797191818251
Au       2.320013396560954      2.077797228648602      0.015260506920603
4
q [0.5, 0.0, 0.5] , b 1 , f 0.170195 , div 17 / 20 (generated by Phonopy) Lattice="4.137640 0.000000 0.000000 -0.000000 4.137640 0.000000 0.000000 -0.000000 4.137640"
Au       0.008977304175345      0.008977291044755      0.008977334148700
Au       0.003554174209158      2.077797218633037      1.868736077689240
Au       2.077797206984559      0.008977282266895      2.077797191939255
Au       2.286858315025186      2.077797228477372      0.014400451592031
4
q [0.5, 0.0, 0.5] , b 1 , f 0.170195 , div 18 / 20 (generated by Phonopy) Lattice="4.137640 0.000000 0.000000 -0.000000 4.137640 0.000000 0.000000 -0.000000 4.137640"
Au       0.008977303986876      0.008977291044755      0.008977334109207
Au       0.004945082733571      2.077797218732355      1.922355521232618
Au       2.077797207024052      0.008977282266895      2.077797192127724
Au       2.233238874562446      2.077797228200452      0.013009543167570
4
q [0.5, 0.0, 0.5] , b 1 , f 0.170195 , div 19 / 20 (generated by Phonopy) Lattice="4.137640 0.000000 0.000000 -0.000000 4.137640 0.000000 0.000000 -0.000000 4.137640"
Au       0.008977303749392      0.008977291044754      0.008977334165669
Au       0.006730692536760      2.077797218859855      1.991190678696505
Au       2.077797206967590      0.008977282266895      2.077797192365209
Au       2.164403719593837      2.077797227844950      0.011223933454838
