4
q [0.5, 0.0, 0.5] , b 8 , f 0.453528 , div 0 / 20 (generated by Phonopy) Lattice="4.137640 0.000000 0.000000 -0.000000 4.137640 0.000000 0.000000 -0.000000 4.137640"
Au       0.008977303486138      0.008977290286630      0.008977335089473
Au       0.008977297534172      2.077797223175684      2.077797193634468
Au       2.077797206043786      0.008977284478915      2.077797192628462
Au       2.077797196180625      2.077797231612466      0.008977328269944
4
q [0.5, 0.0, 0.5] , b 8 , f 0.453528 , div 1 / 20 (generated by Phonopy) Lattice="4.137640 0.000000 0.000000 -0.000000 4.137640 0.000000 0.000000 -0.000000 4.137640"
Au       0.008977304613582      0.008977281019931      0.008977335476117
Au       0.008977297534172      2.077797223651443      2.077797193634468
Au       2.077797206192091     -0.101114803594023      2.077797192325900
Au       2.077797196180625      2.077797231863710      0.008977328269944
4
q [0.5, 0.0, 0.5] , b 8 , f 0.453528 , div 2 / 20 (generated by Phonopy) Lattice="4.137640 0.000000 0.000000 -0.000000 4.137640 0.000000 0.000000 -0.000000 4.137640"
Au       0.008977305630663      0.008977272734532      0.008977335824914
Au       0.008977297534172      2.077797223673871      2.077797193634468
Au       2.077797206325879     -0.200430311246229      2.077797192052955
Au       2.077797196180625      2.077797231677788      0.008977328269944
4
q [0.5, 0.0, 0.5] , b 8 , f 0.453528 , div 3 / 20 (generated by Phonopy) Lattice="4.137640 0.000000 0.000000 -0.000000 4.137640 0.000000 0.000000 -0.000000 4.137640"
Au       0.008977306437824      0.008977266241465      0.008977336101720
Au       0.008977297534172      2.077797223240772      2.077797193634468
Au       2.077797206432054     -0.279247544616873      2.077797191836344
Au       2.077797196180625      2.077797231072897      0.008977328269944
4
q [0.5, 0.0, 0.5] , b 8 , f 0.453528 , div 4 / 20 (generated by Phonopy) Lattice="4.137640 0.000000 0.000000 -0.000000 4.137640 0.000000 0.000000 -0.000000 4.137640"
Au       0.008977306956053      0.008977262176316      0.008977336279441
Au       0.008977297534172      2.077797222394542      2.077797193634468
Au       2.077797206500223     -0.329851323751681      2.077797191697272
Au       2.077797196180625      2.077797230108248      0.008977328269944
4
q [0.5, 0.0, 0.5] , b 8 , f 0.453528 , div 5 / 20 (generated by Phonopy) Lattice="4.137640 0.000000 0.000000 -0.000000 4.137640 0.000000 0.000000 -0.000000 4.137640"
Au       0.008977307134623      0.008977260937012      0.008977336340679
Au       0.008977297534172      2.077797221218014      2.077797193634468
Au       2.077797206523712     -0.347288198171678      2.077797191649351
Au       2.077797196180625      2.077797228878270      0.008977328269944
4
q [0.5, 0.0, 0.5] , b 8 , f 0.453528 , div 6 / 20 (generated by Phonopy) Lattice="4.137640 0.000000 0.000000 -0.000000 4.137640 0.000000 0.000000 -0.000000 4.137640"
Au       0.008977306956053      0.008977262644863      0.008977336279441
Au       0.008977297534172      2.077797219826357      2.077797193634468
Au       2.077797206500223     -0.329851325118785      2.077797191697272
Au       2.077797196180625      2.077797227503360      0.008977328269944
4
q [0.5, 0.0, 0.5] , b 8 , f 0.453528 , div 7 / 20 (generated by Phonopy) Lattice="4.137640 0.000000 0.000000 -0.000000 4.137640 0.000000 0.000000 -0.000000 4.137640"
Au       0.008977306437824      0.008977267132694      0.008977336101720
Au       0.008977297534172      2.077797218355794      2.077797193634468
Au       2.077797206432054     -0.279247547217259      2.077797191836344
Au       2.077797196180625      2.077797226118103      0.008977328269944
4
q [0.5, 0.0, 0.5] , b 8 , f 0.453528 , div 8 / 20 (generated by Phonopy) Lattice="4.137640 0.000000 0.000000 -0.000000 4.137640 0.000000 0.000000 -0.000000 4.137640"
Au       0.008977305630663      0.008977273961203      0.008977335824914
Au       0.008977297534172      2.077797216950275      2.077797193634468
Au       2.077797206325879     -0.200430314825353      2.077797192052955
Au       2.077797196180625      2.077797224858099      0.008977328269944
4
q [0.5, 0.0, 0.5] , b 8 , f 0.453528 , div 9 / 20 (generated by Phonopy) Lattice="4.137640 0.000000 0.000000 -0.000000 4.137640 0.000000 0.000000 -0.000000 4.137640"
Au       0.008977304613582      0.008977282461970      0.008977335476117
Au       0.008977297534172      2.077797215747382      2.077797193634468
Au       2.077797206192091     -0.101114807801536      2.077797192325900
Au       2.077797196180625      2.077797223846686      0.008977328269944
4
q [0.5, 0.0, 0.5] , b 8 , f 0.453528 , div 10 / 20 (generated by Phonopy) Lattice="4.137640 0.000000 0.000000 -0.000000 4.137640 0.000000 0.000000 -0.000000 4.137640"
Au       0.008977303486138      0.008977291802879      0.008977335089473
Au       0.008977297534172      2.077797214864862      2.077797193634468
Au       2.077797206043786      0.008977280054874      2.077797192628462
Au       2.077797196180625      2.077797223182868      0.008977328269944
4
q [0.5, 0.0, 0.5] , b 8 , f 0.453528 , div 11 / 20 (generated by Phonopy) Lattice="4.137640 0.000000 0.000000 -0.000000 4.137640 0.000000 0.000000 -0.000000 4.137640"
Au       0.008977302358694      0.008977301069578      0.008977334702829
Au       0.008977297534172      2.077797214389103      2.077797193634468
Au       2.077797205895481      0.119069368127812      2.077797192931024
Au       2.077797196180625      2.077797222931623      0.008977328269944
4
q [0.5, 0.0, 0.5] , b 8 , f 0.453528 , div 12 / 20 (generated by Phonopy) Lattice="4.137640 0.000000 0.000000 -0.000000 4.137640 0.000000 0.000000 -0.000000 4.137640"
Au       0.008977301341612      0.008977309354977      0.008977334354032
Au       0.008977297534172      2.077797214366675      2.077797193634468
Au       2.077797205761693      0.218384875780018      2.077797193203970
Au       2.077797196180625      2.077797223117546      0.008977328269944
4
q [0.5, 0.0, 0.5] , b 8 , f 0.453528 , div 13 / 20 (generated by Phonopy) Lattice="4.137640 0.000000 0.000000 -0.000000 4.137640 0.000000 0.000000 -0.000000 4.137640"
Au       0.008977300534452      0.008977315848044      0.008977334077225
Au       0.008977297534172      2.077797214799773      2.077797193634468
Au       2.077797205655519      0.297202109150662      2.077797193420580
Au       2.077797196180625      2.077797223722437      0.008977328269944
4
q [0.5, 0.0, 0.5] , b 8 , f 0.453528 , div 14 / 20 (generated by Phonopy) Lattice="4.137640 0.000000 0.000000 -0.000000 4.137640 0.000000 0.000000 -0.000000 4.137640"
Au       0.008977300016223      0.008977319913192      0.008977333899505
Au       0.008977297534172      2.077797215646004      2.077797193634468
Au       2.077797205587350      0.347805888285470      2.077797193559653
Au       2.077797196180625      2.077797224687085      0.008977328269944
4
q [0.5, 0.0, 0.5] , b 8 , f 0.453528 , div 15 / 20 (generated by Phonopy) Lattice="4.137640 0.000000 0.000000 -0.000000 4.137640 0.000000 0.000000 -0.000000 4.137640"
Au       0.008977299837653      0.008977321152497      0.008977333838266
Au       0.008977297534172      2.077797216822531      2.077797193634468
Au       2.077797205563861      0.365242762705467      2.077797193607574
Au       2.077797196180625      2.077797225917064      0.008977328269944
4
q [0.5, 0.0, 0.5] , b 8 , f 0.453528 , div 16 / 20 (generated by Phonopy) Lattice="4.137640 0.000000 0.000000 -0.000000 4.137640 0.000000 0.000000 -0.000000 4.137640"
Au       0.008977300016223      0.008977319444646      0.008977333899505
Au       0.008977297534172      2.077797218214189      2.077797193634468
Au       2.077797205587350      0.347805889652574      2.077797193559653
Au       2.077797196180625      2.077797227291974      0.008977328269944
4
q [0.5, 0.0, 0.5] , b 8 , f 0.453528 , div 17 / 20 (generated by Phonopy) Lattice="4.137640 0.000000 0.000000 -0.000000 4.137640 0.000000 0.000000 -0.000000 4.137640"
Au       0.008977300534452      0.008977314956815      0.008977334077225
Au       0.008977297534172      2.077797219684752      2.077797193634468
Au       2.077797205655519      0.297202111751048      2.077797193420580
Au       2.077797196180625      2.077797228677230      0.008977328269944
4
q [0.5, 0.0, 0.5] , b 8 , f 0.453528 , div 18 / 20 (generated by Phonopy) Lattice="4.137640 0.000000 0.000000 -0.000000 4.137640 0.000000 0.000000 -0.000000 4.137640"
Au       0.008977301341612      0.008977308128306      0.008977334354032
Au       0.008977297534172      2.077797221090271      2.077797193634468
Au       2.077797205761693      0.218384879359142      2.077797193203970
Au       2.077797196180625      2.077797229937234      0.008977328269944
4
q [0.5, 0.0, 0.5] , b 8 , f 0.453528 , div 19 / 20 (generated by Phonopy) Lattice="4.137640 0.000000 0.000000 -0.000000 4.137640 0.000000 0.000000 -0.000000 4.137640"
Au       0.008977302358694      0.008977299627539      0.008977334702829
Au       0.008977297534172      2.077797222293164      2.077797193634468
Au       2.077797205895481      0.119069372335325      2.077797192931024
Au       2.077797196180625      2.077797230948648      0.008977328269944
