4
q [0.5, 0.0, 0.5] , b 9 , f 0.801321 , div 0 / 20 (generated by Phonopy) Lattice="4.137640 0.000000 0.000000 -0.000000 4.137640 0.000000 0.000000 -0.000000 4.137640"
Au       0.008977303486138      0.008977291044754      0.008977335093518
Au       0.008977296032868      2.077797219020273      2.077797194337519
Au       2.077797205140817      0.008977282266895      2.077797191544895
Au       2.077797196883676      2.077797227397667      0.008977326768641
4
q [0.5, 0.0, 0.5] , b 9 , f 0.801321 , div 1 / 20 (generated by Phonopy) Lattice="4.137640 0.000000 0.000000 -0.000000 4.137640 0.000000 0.000000 -0.000000 4.137640"
Au       0.068671275434197      0.008977291279115      0.058944961318758
Au       0.008977295452118      2.077797219020273      2.077797194417373
Au       2.127764831268506      0.008977282956959      2.137491162972440
Au       2.077797196963530      2.077797227397667      0.008977326187890
4
q [0.5, 0.0, 0.5] , b 9 , f 0.801321 , div 2 / 20 (generated by Phonopy) Lattice="4.137640 0.000000 0.000000 -0.000000 4.137640 0.000000 0.000000 -0.000000 4.137640"
Au       0.122521985495620      0.008977291490535      0.104021408143753
Au       0.008977295075174      2.077797219020273      2.077797194420591
Au       2.172841278094284      0.008977283579474      2.191341872670368
Au       2.077797196966748      2.077797227397667      0.008977325810946
4
q [0.5, 0.0, 0.5] , b 9 , f 0.801321 , div 3 / 20 (generated by Phonopy) Lattice="4.137640 0.000000 0.000000 -0.000000 4.137640 0.000000 0.000000 -0.000000 4.137640"
Au       0.165258150969638      0.008977291658319      0.139794278887199
Au       0.008977294938933      2.077797219020273      2.077797194346858
Au       2.208614148936769      0.008977284073506      2.234078037973490
Au       2.077797196893014      2.077797227397667      0.008977325674706
4
q [0.5, 0.0, 0.5] , b 9 , f 0.801321 , div 4 / 20 (generated by Phonopy) Lattice="4.137640 0.000000 0.000000 -0.000000 4.137640 0.000000 0.000000 -0.000000 4.137640"
Au       0.192696458219279      0.008977291766043      0.162761875716481
Au       0.008977295056733      2.077797219020273      2.077797194203391
Au       2.231581745953654      0.008977284390694      2.261516345261565
Au       2.077797196749548      2.077797227397667      0.008977325792505
4
q [0.5, 0.0, 0.5] , b 9 , f 0.801321 , div 5 / 20 (generated by Phonopy) Lattice="4.137640 0.000000 0.000000 -0.000000 4.137640 0.000000 0.000000 -0.000000 4.137640"
Au       0.202151054557021      0.008977291803162      0.170675970229293
Au       0.008977295417042      2.077797219020273      2.077797194004234
Au       2.239495840724267      0.008977284499989      2.270970941843306
Au       2.077797196550391      2.077797227397667      0.008977326152814
4
q [0.5, 0.0, 0.5] , b 9 , f 0.801321 , div 6 / 20 (generated by Phonopy) Lattice="4.137640 0.000000 0.000000 -0.000000 4.137640 0.000000 0.000000 -0.000000 4.137640"
Au       0.192696458219279      0.008977291766043      0.162761875713982
Au       0.008977295984590      2.077797219020273      2.077797193768882
Au       2.231581746511720      0.008977284390694      2.261516345931246
Au       2.077797196315038      2.077797227397667      0.008977326720362
4
q [0.5, 0.0, 0.5] , b 9 , f 0.801321 , div 7 / 20 (generated by Phonopy) Lattice="4.137640 0.000000 0.000000 -0.000000 4.137640 0.000000 0.000000 -0.000000 4.137640"
Au       0.165258150969638      0.008977291658319      0.139794278882444
Au       0.008977296703822      2.077797219020273      2.077797193520372
Au       2.208614149998274      0.008977284073506      2.234078039247300
Au       2.077797196066529      2.077797227397667      0.008977327439594
4
q [0.5, 0.0, 0.5] , b 9 , f 0.801321 , div 8 / 20 (generated by Phonopy) Lattice="4.137640 0.000000 0.000000 -0.000000 4.137640 0.000000 0.000000 -0.000000 4.137640"
Au       0.122521985495621      0.008977291490535      0.104021408137208
Au       0.008977297504334      2.077797219020273      2.077797193283031
Au       2.172841279555319      0.008977283579474      2.191341874423617
Au       2.077797195829187      2.077797227397667      0.008977328240106
4
q [0.5, 0.0, 0.5] , b 9 , f 0.801321 , div 9 / 20 (generated by Phonopy) Lattice="4.137640 0.000000 0.000000 -0.000000 4.137640 0.000000 0.000000 -0.000000 4.137640"
Au       0.068671275434197      0.008977291279115      0.058944961311065
Au       0.008977298307767      2.077797219020273      2.077797193080091
Au       2.127764832986056      0.008977282956959      2.137491165033507
Au       2.077797195626248      2.077797227397667      0.008977329043539
4
q [0.5, 0.0, 0.5] , b 9 , f 0.801321 , div 10 / 20 (generated by Phonopy) Lattice="4.137640 0.000000 0.000000 -0.000000 4.137640 0.000000 0.000000 -0.000000 4.137640"
Au       0.008977303486138      0.008977291044754      0.008977335085428
Au       0.008977299035475      2.077797219020273      2.077797192931417
Au       2.077797206946756      0.008977282266895      2.077797193712029
Au       2.077797195477574      2.077797227397667      0.008977329771248
4
q [0.5, 0.0, 0.5] , b 9 , f 0.801321 , div 11 / 20 (generated by Phonopy) Lattice="4.137640 0.000000 0.000000 -0.000000 4.137640 0.000000 0.000000 -0.000000 4.137640"
Au      -0.050716668461921      0.008977290810394     -0.040990291139812
Au       0.008977299616226      2.077797219020273      2.077797192851564
Au       2.027829580819067      0.008977281576830      2.018103222284485
Au       2.077797195397720      2.077797227397667      0.008977330351998
4
q [0.5, 0.0, 0.5] , b 9 , f 0.801321 , div 12 / 20 (generated by Phonopy) Lattice="4.137640 0.000000 0.000000 -0.000000 4.137640 0.000000 0.000000 -0.000000 4.137640"
Au      -0.104567378523345      0.008977290598974     -0.086066737964807
Au       0.008977299993170      2.077797219020273      2.077797192848346
Au       1.982753133993289      0.008977280954315      1.964252512586557
Au       2.077797195394502      2.077797227397667      0.008977330728942
4
q [0.5, 0.0, 0.5] , b 9 , f 0.801321 , div 13 / 20 (generated by Phonopy) Lattice="4.137640 0.000000 0.000000 -0.000000 4.137640 0.000000 0.000000 -0.000000 4.137640"
Au      -0.147303543997363      0.008977290431190     -0.121839608708253
Au       0.008977300129410      2.077797219020273      2.077797192922079
Au       1.946980263150803      0.008977280460283      1.921516347283434
Au       2.077797195468236      2.077797227397667      0.008977330865182
4
q [0.5, 0.0, 0.5] , b 9 , f 0.801321 , div 14 / 20 (generated by Phonopy) Lattice="4.137640 0.000000 0.000000 -0.000000 4.137640 0.000000 0.000000 -0.000000 4.137640"
Au      -0.174741851247004      0.008977290323466     -0.144807205537536
Au       0.008977300011610      2.077797219020273      2.077797193065546
Au       1.924012666133918      0.008977280143096      1.894078039995360
Au       2.077797195611702      2.077797227397667      0.008977330747383
4
q [0.5, 0.0, 0.5] , b 9 , f 0.801321 , div 15 / 20 (generated by Phonopy) Lattice="4.137640 0.000000 0.000000 -0.000000 4.137640 0.000000 0.000000 -0.000000 4.137640"
Au      -0.184196447584746      0.008977290286347     -0.152721300050347
Au       0.008977299651302      2.077797219020273      2.077797193264703
Au       1.916098571363305      0.008977280033800      1.884623443413619
Au       2.077797195810859      2.077797227397667      0.008977330387074
4
q [0.5, 0.0, 0.5] , b 9 , f 0.801321 , div 16 / 20 (generated by Phonopy) Lattice="4.137640 0.000000 0.000000 -0.000000 4.137640 0.000000 0.000000 -0.000000 4.137640"
Au      -0.174741851247004      0.008977290323466     -0.144807205535036
Au       0.008977299083754      2.077797219020273      2.077797193500055
Au       1.924012665575852      0.008977280143096      1.894078039325679
Au       2.077797196046212      2.077797227397667      0.008977329819526
4
q [0.5, 0.0, 0.5] , b 9 , f 0.801321 , div 17 / 20 (generated by Phonopy) Lattice="4.137640 0.000000 0.000000 -0.000000 4.137640 0.000000 0.000000 -0.000000 4.137640"
Au      -0.147303543997363      0.008977290431190     -0.121839608703498
Au       0.008977298364522      2.077797219020273      2.077797193748565
Au       1.946980262089299      0.008977280460283      1.921516346009625
Au       2.077797196294721      2.077797227397667      0.008977329100294
4
q [0.5, 0.0, 0.5] , b 9 , f 0.801321 , div 18 / 20 (generated by Phonopy) Lattice="4.137640 0.000000 0.000000 -0.000000 4.137640 0.000000 0.000000 -0.000000 4.137640"
Au      -0.104567378523345      0.008977290598974     -0.086066737958263
Au       0.008977297564009      2.077797219020273      2.077797193985906
Au       1.982753132532254      0.008977280954315      1.964252510833308
Au       2.077797196532063      2.077797227397667      0.008977328299782
4
q [0.5, 0.0, 0.5] , b 9 , f 0.801321 , div 19 / 20 (generated by Phonopy) Lattice="4.137640 0.000000 0.000000 -0.000000 4.137640 0.000000 0.000000 -0.000000 4.137640"
Au      -0.050716668461921      0.008977290810394     -0.040990291132119
Au       0.008977296760576      2.077797219020273      2.077797194188846
Au       2.027829579101517      0.008977281576830      2.018103220223418
Au       2.077797196735002      2.077797227397667      0.008977327496349
