4
q [0.5, 0.0, 0.5] , b 11 , f 0.801321 , div 0 / 20 (generated by Phonopy) Lattice="4.137640 0.000000 0.000000 -0.000000 4.137640 0.000000 0.000000 -0.000000 4.137640"
Au       0.008977303486138      0.008977291044754      0.008977335094305
Au       0.008977298313674      2.077797219020273      2.077797190231505
Au       2.077797204965051      0.008977282266895      2.077797193535476
Au       2.077797192777661      2.077797227397667      0.008977329049447
4
q [0.5, 0.0, 0.5] , b 11 , f 0.801321 , div 1 / 20 (generated by Phonopy) Lattice="4.137640 0.000000 0.000000 -0.000000 4.137640 0.000000 0.000000 -0.000000 4.137640"
Au      -0.040990322678400      0.008977290989370      0.068671306695945
Au       0.008977297817514      2.077797219020273      2.077797191288221
Au       2.137491176738541      0.008977282182564      2.027829567346688
Au       2.077797193834377      2.077797227397667      0.008977328553286
4
q [0.5, 0.0, 0.5] , b 11 , f 0.801321 , div 2 / 20 (generated by Phonopy) Lattice="4.137640 0.000000 0.000000 -0.000000 4.137640 0.000000 0.000000 -0.000000 4.137640"
Au      -0.086066769449030      0.008977290939407      0.122522016444388
Au       0.008977297293618      2.077797219020273      2.077797192574604
Au       2.191341886748079      0.008977282106488      1.982753120465397
Au       2.077797195120760      2.077797227397667      0.008977328029391
4
q [0.5, 0.0, 0.5] , b 11 , f 0.801321 , div 3 / 20 (generated by Phonopy) Lattice="4.137640 0.000000 0.000000 -0.000000 4.137640 0.000000 0.000000 -0.000000 4.137640"
Au      -0.121839640149770      0.008977290899756      0.165258181669498
Au       0.008977296793269      2.077797219020273      2.077797193964734
Au       2.234078052297971      0.008977282046114      1.946980249578416
Au       2.077797196510890      2.077797227397667      0.008977327529042
4
q [0.5, 0.0, 0.5] , b 11 , f 0.801321 , div 4 / 20 (generated by Phonopy) Lattice="4.137640 0.000000 0.000000 -0.000000 4.137640 0.000000 0.000000 -0.000000 4.137640"
Au      -0.144807236952187      0.008977290874298      0.192696488758670
Au       0.008977296365445      2.077797219020273      2.077797195322535
Au       2.261516359743820      0.008977282007351      1.924012652532410
Au       2.077797197868691      2.077797227397667      0.008977327101218
4
q [0.5, 0.0, 0.5] , b 11 , f 0.801321 , div 5 / 20 (generated by Phonopy) Lattice="4.137640 0.000000 0.000000 -0.000000 4.137640 0.000000 0.000000 -0.000000 4.137640"
Au      -0.152721331456603      0.008977290865526      0.202151085040088
Au       0.008977296052024      2.077797219020273      2.077797196515097
Au       2.270970956378898      0.008977281993995      1.916098557750902
Au       2.077797199061253      2.077797227397667      0.008977326787797
4
q [0.5, 0.0, 0.5] , b 11 , f 0.801321 , div 6 / 20 (generated by Phonopy) Lattice="4.137640 0.000000 0.000000 -0.000000 4.137640 0.000000 0.000000 -0.000000 4.137640"
Au      -0.144807236952187      0.008977290874298      0.192696488755683
Au       0.008977295883686      2.077797219020273      2.077797197425682
Au       2.261516360410515      0.008977282007351      1.924012651971845
Au       2.077797199971839      2.077797227397667      0.008977326619458
4
q [0.5, 0.0, 0.5] , b 11 , f 0.801321 , div 7 / 20 (generated by Phonopy) Lattice="4.137640 0.000000 0.000000 -0.000000 4.137640 0.000000 0.000000 -0.000000 4.137640"
Au      -0.121839640149770      0.008977290899756      0.165258181663817
Au       0.008977295876909      2.077797219020273      2.077797197965157
Au       2.234078053566100      0.008977282046114      1.946980248512157
Au       2.077797200511314      2.077797227397667      0.008977326612681
4
q [0.5, 0.0, 0.5] , b 11 , f 0.801321 , div 8 / 20 (generated by Phonopy) Lattice="4.137640 0.000000 0.000000 -0.000000 4.137640 0.000000 0.000000 -0.000000 4.137640"
Au      -0.086066769449030      0.008977290939407      0.122522016436569
Au       0.008977296032356      2.077797219020273      2.077797198080714
Au       2.191341888493509      0.008977282106488      1.982753118997817
Au       2.077797200626871      2.077797227397667      0.008977326768129
4
q [0.5, 0.0, 0.5] , b 11 , f 0.801321 , div 9 / 20 (generated by Phonopy) Lattice="4.137640 0.000000 0.000000 -0.000000 4.137640 0.000000 0.000000 -0.000000 4.137640"
Au      -0.040990322678400      0.008977290989370      0.068671306686754
Au       0.008977296334812      2.077797219020273      2.077797197761042
Au       2.137491178790417      0.008977282182564      2.027829565621445
Au       2.077797200307199      2.077797227397667      0.008977327070584
4
q [0.5, 0.0, 0.5] , b 11 , f 0.801321 , div 10 / 20 (generated by Phonopy) Lattice="4.137640 0.000000 0.000000 -0.000000 4.137640 0.000000 0.000000 -0.000000 4.137640"
Au       0.008977303486138      0.008977291044754      0.008977335084641
Au       0.008977296754669      2.077797219020273      2.077797197037432
Au       2.077797207122522      0.008977282266895      2.077797191721448
Au       2.077797199583589      2.077797227397667      0.008977327490441
4
q [0.5, 0.0, 0.5] , b 11 , f 0.801321 , div 11 / 20 (generated by Phonopy) Lattice="4.137640 0.000000 0.000000 -0.000000 4.137640 0.000000 0.000000 -0.000000 4.137640"
Au       0.058944929650675      0.008977291100139     -0.050716636517000
Au       0.008977297250830      2.077797219020273      2.077797195980716
Au       2.018103235349032      0.008977282351225      2.127764817910236
Au       2.077797198526873      2.077797227397667      0.008977327986602
4
q [0.5, 0.0, 0.5] , b 11 , f 0.801321 , div 12 / 20 (generated by Phonopy) Lattice="4.137640 0.000000 0.000000 -0.000000 4.137640 0.000000 0.000000 -0.000000 4.137640"
Au       0.104021376421305      0.008977291150102     -0.104567346265442
Au       0.008977297774725      2.077797219020273      2.077797194694333
Au       1.964252525339494      0.008977282427301      2.172841264791528
Au       2.077797197240490      2.077797227397667      0.008977328510498
4
q [0.5, 0.0, 0.5] , b 11 , f 0.801321 , div 13 / 20 (generated by Phonopy) Lattice="4.137640 0.000000 0.000000 -0.000000 4.137640 0.000000 0.000000 -0.000000 4.137640"
Au       0.139794247122046      0.008977291189753     -0.147303511490552
Au       0.008977298275074      2.077797219020273      2.077797193304203
Au       1.921516359789602      0.008977282487675      2.208614135678509
Au       2.077797195850360      2.077797227397667      0.008977329010847
4
q [0.5, 0.0, 0.5] , b 11 , f 0.801321 , div 14 / 20 (generated by Phonopy) Lattice="4.137640 0.000000 0.000000 -0.000000 4.137640 0.000000 0.000000 -0.000000 4.137640"
Au       0.162761843924463      0.008977291215211     -0.174741818579724
Au       0.008977298702898      2.077797219020273      2.077797191946402
Au       1.894078052343753      0.008977282526438      2.231581732724514
Au       2.077797194492559      2.077797227397667      0.008977329438671
4
q [0.5, 0.0, 0.5] , b 11 , f 0.801321 , div 15 / 20 (generated by Phonopy) Lattice="4.137640 0.000000 0.000000 -0.000000 4.137640 0.000000 0.000000 -0.000000 4.137640"
Au       0.170675938428879      0.008977291223983     -0.184196414861143
Au       0.008977299016319      2.077797219020273      2.077797190753840
Au       1.884623455708675      0.008977282539795      2.239495827506023
Au       2.077797193299997      2.077797227397667      0.008977329752092
4
q [0.5, 0.0, 0.5] , b 11 , f 0.801321 , div 16 / 20 (generated by Phonopy) Lattice="4.137640 0.000000 0.000000 -0.000000 4.137640 0.000000 0.000000 -0.000000 4.137640"
Au       0.162761843924463      0.008977291215211     -0.174741818576737
Au       0.008977299184657      2.077797219020273      2.077797189843255
Au       1.894078051677058      0.008977282526438      2.231581733285080
Au       2.077797192389411      2.077797227397667      0.008977329920430
4
q [0.5, 0.0, 0.5] , b 11 , f 0.801321 , div 17 / 20 (generated by Phonopy) Lattice="4.137640 0.000000 0.000000 -0.000000 4.137640 0.000000 0.000000 -0.000000 4.137640"
Au       0.139794247122046      0.008977291189753     -0.147303511484872
Au       0.008977299191434      2.077797219020273      2.077797189303779
Au       1.921516358521473      0.008977282487675      2.208614136744768
Au       2.077797191849936      2.077797227397667      0.008977329927207
4
q [0.5, 0.0, 0.5] , b 11 , f 0.801321 , div 18 / 20 (generated by Phonopy) Lattice="4.137640 0.000000 0.000000 -0.000000 4.137640 0.000000 0.000000 -0.000000 4.137640"
Au       0.104021376421305      0.008977291150102     -0.104567346257624
Au       0.008977299035987      2.077797219020273      2.077797189188222
Au       1.964252523594064      0.008977282427301      2.172841266259108
Au       2.077797191734378      2.077797227397667      0.008977329771759
4
q [0.5, 0.0, 0.5] , b 11 , f 0.801321 , div 19 / 20 (generated by Phonopy) Lattice="4.137640 0.000000 0.000000 -0.000000 4.137640 0.000000 0.000000 -0.000000 4.137640"
Au       0.058944929650675      0.008977291100139     -0.050716636507808
Au       0.008977298733532      2.077797219020273      2.077797189507895
Au       2.018103233297155      0.008977282351225      2.127764819635480
Au       2.077797192054051      2.077797227397667      0.008977329469304
