4
q [0.5, 0.0, 0.5] , b 3 , f 0.170195 , div 0 / 20 (generated by Phonopy) Lattice="4.137640 0.000000 0.000000 -0.000000 4.137640 0.000000 0.000000 -0.000000 4.137640"
Au       0.008977303486138      0.008977291044754      0.008977335118916
Au       0.008977297333621      2.077797219020273      2.077797194384595
Au       2.077797204612040      0.008977282266895      2.077797192802637
Au       2.077797195430498      2.077797227397667      0.008977328470495
4
q [0.5, 0.0, 0.5] , b 3 , f 0.170195 , div 1 / 20 (generated by Phonopy) Lattice="4.137640 0.000000 0.000000 -0.000000 4.137640 0.000000 0.000000 -0.000000 4.137640"
Au       0.018572635048483      0.008977290912171     -0.068275907746532
Au       0.008977297414695      2.077797219020273      2.077797194570707
Au       2.155050447502648      0.008977282224284      2.068201861359662
Au       2.077797195244386      2.077797227397667      0.008977328389421
4
q [0.5, 0.0, 0.5] , b 3 , f 0.170195 , div 2 / 20 (generated by Phonopy) Lattice="4.137640 0.000000 0.000000 -0.000000 4.137640 0.000000 0.000000 -0.000000 4.137640"
Au       0.027228708702899      0.008977290792565     -0.137967064948198
Au       0.008977297507465      2.077797219020273      2.077797194665174
Au       2.224741604864279      0.008977282185845      2.059545787795880
Au       2.077797195149920      2.077797227397667      0.008977328296651
4
q [0.5, 0.0, 0.5] , b 3 , f 0.170195 , div 3 / 20 (generated by Phonopy) Lattice="4.137640 0.000000 0.000000 -0.000000 4.137640 0.000000 0.000000 -0.000000 4.137640"
Au       0.034098207649682      0.008977290697646     -0.193274280452340
Au       0.008977297602849      2.077797219020273      2.077797194658748
Au       2.280048820647531      0.008977282155339      2.052676288902126
Au       2.077797195156345      2.077797227397667      0.008977328201267
4
q [0.5, 0.0, 0.5] , b 3 , f 0.170195 , div 4 / 20 (generated by Phonopy) Lattice="4.137640 0.000000 0.000000 -0.000000 4.137640 0.000000 0.000000 -0.000000 4.137640"
Au       0.038508697469305      0.008977290636704     -0.228783698657382
Au       0.008977297691510      2.077797219020273      2.077797194552058
Au       2.315558239223509      0.008977282135753      2.048265799092735
Au       2.077797195263035      2.077797227397667      0.008977328112606
4
q [0.5, 0.0, 0.5] , b 3 , f 0.170195 , div 5 / 20 (generated by Phonopy) Lattice="4.137640 0.000000 0.000000 -0.000000 4.137640 0.000000 0.000000 -0.000000 4.137640"
Au       0.040028448688535      0.008977290615705     -0.241019410300752
Au       0.008977297764770      2.077797219020273      2.077797194355549
Au       2.327793951293328      0.008977282129004      2.046746047839938
Au       2.077797195459544      2.077797227397667      0.008977328039346
4
q [0.5, 0.0, 0.5] , b 3 , f 0.170195 , div 6 / 20 (generated by Phonopy) Lattice="4.137640 0.000000 0.000000 -0.000000 4.137640 0.000000 0.000000 -0.000000 4.137640"
Au       0.038508697469305      0.008977290636704     -0.228783698675579
Au       0.008977297815457      2.077797219020273      2.077797194088455
Au       2.315558240108377      0.008977282135753      2.048265798985089
Au       2.077797195726639      2.077797227397667      0.008977327988659
4
q [0.5, 0.0, 0.5] , b 3 , f 0.170195 , div 7 / 20 (generated by Phonopy) Lattice="4.137640 0.000000 0.000000 -0.000000 4.137640 0.000000 0.000000 -0.000000 4.137640"
Au       0.034098207649682      0.008977290697646     -0.193274280486952
Au       0.008977297838610      2.077797219020273      2.077797193776922
Au       2.280048822330650      0.008977282155339      2.052676288697372
Au       2.077797196038172      2.077797227397667      0.008977327965506
4
q [0.5, 0.0, 0.5] , b 3 , f 0.170195 , div 8 / 20 (generated by Phonopy) Lattice="4.137640 0.000000 0.000000 -0.000000 4.137640 0.000000 0.000000 -0.000000 4.137640"
Au       0.027228708702899      0.008977290792565     -0.137967064995837
Au       0.008977297831963      2.077797219020273      2.077797193451444
Au       2.224741607180893      0.008977282185845      2.059545787514059
Au       2.077797196363650      2.077797227397667      0.008977327972153
4
q [0.5, 0.0, 0.5] , b 3 , f 0.170195 , div 9 / 20 (generated by Phonopy) Lattice="4.137640 0.000000 0.000000 -0.000000 4.137640 0.000000 0.000000 -0.000000 4.137640"
Au       0.018572635048483      0.008977290912171     -0.068275907802535
Au       0.008977297796166      2.077797219020273      2.077797193143882
Au       2.155050450225991      0.008977282224284      2.068201861028361
Au       2.077797196671212      2.077797227397667      0.008977328007950
4
q [0.5, 0.0, 0.5] , b 3 , f 0.170195 , div 10 / 20 (generated by Phonopy) Lattice="4.137640 0.000000 0.000000 -0.000000 4.137640 0.000000 0.000000 -0.000000 4.137640"
Au       0.008977303486138      0.008977291044754      0.008977335060030
Au       0.008977297734723      2.077797219020273      2.077797192884342
Au       2.077797207475533      0.008977282266895      2.077797192454288
Au       2.077797196930752      2.077797227397667      0.008977328069393
4
q [0.5, 0.0, 0.5] , b 3 , f 0.170195 , div 11 / 20 (generated by Phonopy) Lattice="4.137640 0.000000 0.000000 -0.000000 4.137640 0.000000 0.000000 -0.000000 4.137640"
Au      -0.000618028076207      0.008977291177338      0.086230577925477
Au       0.008977297653648      2.077797219020273      2.077797192698230
Au       2.000543964584925      0.008977282309505      2.087392523897263
Au       2.077797197116864      2.077797227397667      0.008977328150468
4
q [0.5, 0.0, 0.5] , b 3 , f 0.170195 , div 12 / 20 (generated by Phonopy) Lattice="4.137640 0.000000 0.000000 -0.000000 4.137640 0.000000 0.000000 -0.000000 4.137640"
Au      -0.009274101730624      0.008977291296944      0.155921735127144
Au       0.008977297560879      2.077797219020273      2.077797192603763
Au       1.930852807223294      0.008977282347945      2.096048597461045
Au       2.077797197211330      2.077797227397667      0.008977328243237
4
q [0.5, 0.0, 0.5] , b 3 , f 0.170195 , div 13 / 20 (generated by Phonopy) Lattice="4.137640 0.000000 0.000000 -0.000000 4.137640 0.000000 0.000000 -0.000000 4.137640"
Au      -0.016143600677406      0.008977291391863      0.211228950631285
Au       0.008977297465495      2.077797219020273      2.077797192610189
Au       1.875545591440042      0.008977282378450      2.102918096354799
Au       2.077797197204905      2.077797227397667      0.008977328338621
4
q [0.5, 0.0, 0.5] , b 3 , f 0.170195 , div 14 / 20 (generated by Phonopy) Lattice="4.137640 0.000000 0.000000 -0.000000 4.137640 0.000000 0.000000 -0.000000 4.137640"
Au      -0.020554090497029      0.008977291452805      0.246738368836328
Au       0.008977297376834      2.077797219020273      2.077797192716878
Au       1.840036172864064      0.008977282398036      2.107328586164190
Au       2.077797197098215      2.077797227397667      0.008977328427282
4
q [0.5, 0.0, 0.5] , b 3 , f 0.170195 , div 15 / 20 (generated by Phonopy) Lattice="4.137640 0.000000 0.000000 -0.000000 4.137640 0.000000 0.000000 -0.000000 4.137640"
Au      -0.022073841716260      0.008977291473804      0.258974080479698
Au       0.008977297303574      2.077797219020273      2.077797192913388
Au       1.827800460794244      0.008977282404785      2.108848337416987
Au       2.077797196901706      2.077797227397667      0.008977328500542
4
q [0.5, 0.0, 0.5] , b 3 , f 0.170195 , div 16 / 20 (generated by Phonopy) Lattice="4.137640 0.000000 0.000000 -0.000000 4.137640 0.000000 0.000000 -0.000000 4.137640"
Au      -0.020554090497029      0.008977291452805      0.246738368854525
Au       0.008977297252886      2.077797219020273      2.077797193180482
Au       1.840036171979196      0.008977282398036      2.107328586271836
Au       2.077797196634611      2.077797227397667      0.008977328551229
4
q [0.5, 0.0, 0.5] , b 3 , f 0.170195 , div 17 / 20 (generated by Phonopy) Lattice="4.137640 0.000000 0.000000 -0.000000 4.137640 0.000000 0.000000 -0.000000 4.137640"
Au      -0.016143600677406      0.008977291391863      0.211228950665898
Au       0.008977297229733      2.077797219020273      2.077797193492015
Au       1.875545589756923      0.008977282378450      2.102918096559553
Au       2.077797196323078      2.077797227397667      0.008977328574383
4
q [0.5, 0.0, 0.5] , b 3 , f 0.170195 , div 18 / 20 (generated by Phonopy) Lattice="4.137640 0.000000 0.000000 -0.000000 4.137640 0.000000 0.000000 -0.000000 4.137640"
Au      -0.009274101730624      0.008977291296944      0.155921735174783
Au       0.008977297236381      2.077797219020273      2.077797193817493
Au       1.930852804906680      0.008977282347945      2.096048597742866
Au       2.077797195997600      2.077797227397667      0.008977328567735
4
q [0.5, 0.0, 0.5] , b 3 , f 0.170195 , div 19 / 20 (generated by Phonopy) Lattice="4.137640 0.000000 0.000000 -0.000000 4.137640 0.000000 0.000000 -0.000000 4.137640"
Au      -0.000618028076207      0.008977291177338      0.086230577981481
Au       0.008977297272178      2.077797219020273      2.077797194125055
Au       2.000543961861581      0.008977282309505      2.087392524228564
Au       2.077797195690038      2.077797227397667      0.008977328531938
