4
q [0.5, 0.5, 0.5] , b 11 , f 1.139292 , div 0 / 20 (generated by Phonopy) Lattice="4.137640 0.000000 0.000000 -0.000000 4.137640 0.000000 0.000000 -0.000000 4.137640"
Au       0.008977303486138      0.008977290403990      0.008977334687259
Au       0.008977297971751      2.077797222799717      2.077797194180184
Au       2.077797206390737      0.008977282431326      2.077797192216663
Au       2.077797198796663      2.077797221088274      0.008977329288172
4
q [0.5, 0.5, 0.5] , b 11 , f 1.139292 , div 1 / 20 (generated by Phonopy) Lattice="4.137640 0.000000 0.000000 -0.000000 4.137640 0.000000 0.000000 -0.000000 4.137640"
Au       0.038622554419202     -0.006325090328548     -0.044954718461529
Au       0.004685546306413      2.023865169201961      2.062494813326743
Au       2.023865152784218      0.004685530872050      2.107442443221515
Au       2.062494817614591      2.107442472304978      0.004685578075293
4
q [0.5, 0.5, 0.5] , b 11 , f 1.139292 , div 2 / 20 (generated by Phonopy) Lattice="4.137640 0.000000 0.000000 -0.000000 4.137640 0.000000 0.000000 -0.000000 4.137640"
Au       0.065365921640329     -0.020129567354306     -0.093607526442033
Au       0.000813901153638      1.975212360407108      2.048690336075775
Au       1.975212344317455      0.000813885841692      2.134185810547713
Au       2.048690339864504      2.134185840399589      0.000813933273848
4
q [0.5, 0.5, 0.5] , b 11 , f 1.139292 , div 3 / 20 (generated by Phonopy) Lattice="4.137640 0.000000 0.000000 -0.000000 4.137640 0.000000 0.000000 -0.000000 4.137640"
Au       0.086589578033919     -0.031084862280557     -0.132218613425074
Au      -0.002258653883683      1.936601272324050      2.037735040842053
Au       1.936601256867225     -0.002258669068840      2.155409467069371
Au       2.037735044010031      2.155409498171002     -0.002258621547661
4
q [0.5, 0.5, 0.5] , b 11 , f 1.139292 , div 4 / 20 (generated by Phonopy) Lattice="4.137640 0.000000 0.000000 -0.000000 4.137640 0.000000 0.000000 -0.000000 4.137640"
Au       0.100216004238259     -0.038118594509892     -0.157008457197492
Au      -0.004231355710748      1.911811427273626      2.030701308253085
Au       1.911811412692422     -0.004231370777154      2.169035893412240
Au       2.030701310739444      2.169035926122633     -0.004231323315557
4
q [0.5, 0.5, 0.5] , b 11 , f 1.139292 , div 5 / 20 (generated by Phonopy) Lattice="4.137640 0.000000 0.000000 -0.000000 4.137640 0.000000 0.000000 -0.000000 4.137640"
Au       0.104911350715572     -0.040542253324808     -0.165550455129843
Au      -0.004911102528102      1.903269428010377      2.028277649061574
Au       1.903269414461876     -0.004911117495419      2.173731240024985
Au       2.028277650872168      2.173731274545671     -0.004911070236177
4
q [0.5, 0.5, 0.5] , b 11 , f 1.139292 , div 6 / 20 (generated by Phonopy) Lattice="4.137640 0.000000 0.000000 -0.000000 4.137640 0.000000 0.000000 -0.000000 4.137640"
Au       0.100216004238259     -0.038118594113877     -0.157008456948910
Au      -0.004231355981187      1.911811424937801      2.030701307915814
Au       1.911811412477995     -0.004231370878778      2.169035893666746
Au       2.030701309122644      2.169035930022052     -0.004231323944856
4
q [0.5, 0.5, 0.5] , b 11 , f 1.139292 , div 7 / 20 (generated by Phonopy) Lattice="4.137640 0.000000 0.000000 -0.000000 4.137640 0.000000 0.000000 -0.000000 4.137640"
Au       0.086589578033919     -0.031084861527293     -0.132218612952244
Au      -0.002258654398088      1.936601267881047      2.037735040200526
Au       1.936601256459360     -0.002258669262140      2.155409467553470
Au       2.037735040934694      2.155409505588138     -0.002258622744659
4
q [0.5, 0.5, 0.5] , b 11 , f 1.139292 , div 8 / 20 (generated by Phonopy) Lattice="4.137640 0.000000 0.000000 -0.000000 4.137640 0.000000 0.000000 -0.000000 4.137640"
Au       0.065365921640329     -0.020129566317527     -0.093607525791238
Au       0.000813900445621      1.975212354291839      2.048690335192788
Au       1.975212343756076      0.000813885575637      2.134185811214018
Au       2.048690335631666      2.134185850608400      0.000813931626322
4
q [0.5, 0.5, 0.5] , b 11 , f 1.139292 , div 9 / 20 (generated by Phonopy) Lattice="4.137640 0.000000 0.000000 -0.000000 4.137640 0.000000 0.000000 -0.000000 4.137640"
Au       0.038622554419202     -0.006325089109741     -0.044954717696473
Au       0.004685545474089      2.023865162013031      2.062494812288730
Au       2.023865152124277      0.004685530559283      2.107442444004804
Au       2.062494812638592      2.107442484306156      0.004685576138509
4
q [0.5, 0.5, 0.5] , b 11 , f 1.139292 , div 10 / 20 (generated by Phonopy) Lattice="4.137640 0.000000 0.000000 -0.000000 4.137640 0.000000 0.000000 -0.000000 4.137640"
Au       0.008977303486138      0.008977291685519      0.008977335491687
Au       0.008977297096593      2.077797215240829      2.077797193088752
Au       2.077797205696835      0.008977282102463      2.077797193040262
Au       2.077797193564587      2.077797233707059      0.008977327251717
4
q [0.5, 0.5, 0.5] , b 11 , f 1.139292 , div 11 / 20 (generated by Phonopy) Lattice="4.137640 0.000000 0.000000 -0.000000 4.137640 0.000000 0.000000 -0.000000 4.137640"
Au      -0.020667947446926      0.024279672418057      0.062909388640475
Au       0.013269048761930      2.131729268838585      2.093099573942194
Au       2.131729259303355      0.013269033661739      2.048151942035410
Au       2.093099574746659      2.048151982490355      0.013269078464595
4
q [0.5, 0.5, 0.5] , b 11 , f 1.139292 , div 12 / 20 (generated by Phonopy) Lattice="4.137640 0.000000 0.000000 -0.000000 4.137640 0.000000 0.000000 -0.000000 4.137640"
Au      -0.047411314668053      0.038084149443815      0.111562196620979
Au       0.017140693914705      2.180382077633438      2.106904051193162
Au       2.180382067770118      0.017140678692097      2.021408574709212
Au       2.106904052496746      2.021408614395745      0.017140723266040
4
q [0.5, 0.5, 0.5] , b 11 , f 1.139292 , div 13 / 20 (generated by Phonopy) Lattice="4.137640 0.000000 0.000000 -0.000000 4.137640 0.000000 0.000000 -0.000000 4.137640"
Au      -0.068634971061644      0.049039444370066      0.150173283604020
Au       0.020213248952027      2.218993165716496      2.117859346426883
Au       2.218993155220347      0.020213233602629      2.000184918187554
Au       2.117859348351219      2.000184956624332      0.020213278087549
4
q [0.5, 0.5, 0.5] , b 11 , f 1.139292 , div 14 / 20 (generated by Phonopy) Lattice="4.137640 0.000000 0.000000 -0.000000 4.137640 0.000000 0.000000 -0.000000 4.137640"
Au      -0.082261397265983      0.056073176599401      0.174963127376437
Au       0.022185950779092      2.243783010766920      2.124893079015852
Au       2.243782999395151      0.022185935310943      1.986558491844685
Au       2.124893081621806      1.986558528672701      0.022185979855445
4
q [0.5, 0.5, 0.5] , b 11 , f 1.139292 , div 15 / 20 (generated by Phonopy) Lattice="4.137640 0.000000 0.000000 -0.000000 4.137640 0.000000 0.000000 -0.000000 4.137640"
Au      -0.086956743743297      0.058496835414316      0.183505125308788
Au       0.022865697596445      2.252325010030169      2.127316738207362
Au       2.252324997625696      0.022865682029208      1.981863145231940
Au       2.127316741489082      1.981863180249663      0.022865726776065
4
q [0.5, 0.5, 0.5] , b 11 , f 1.139292 , div 16 / 20 (generated by Phonopy) Lattice="4.137640 0.000000 0.000000 -0.000000 4.137640 0.000000 0.000000 -0.000000 4.137640"
Au      -0.082261397265983      0.056073176203386      0.174963127127856
Au       0.022185951049530      2.243783013102745      2.124893079353123
Au       2.243782999609578      0.022185935412567      1.986558491590179
Au       2.124893083238606      1.986558524773281      0.022185980484744
4
q [0.5, 0.5, 0.5] , b 11 , f 1.139292 , div 17 / 20 (generated by Phonopy) Lattice="4.137640 0.000000 0.000000 -0.000000 4.137640 0.000000 0.000000 -0.000000 4.137640"
Au      -0.068634971061644      0.049039443616802      0.150173283131190
Au       0.020213249466431      2.218993170159499      2.117859347068411
Au       2.218993155628213      0.020213233795929      2.000184917703455
Au       2.117859351426556      2.000184949207196      0.020213279284547
4
q [0.5, 0.5, 0.5] , b 11 , f 1.139292 , div 18 / 20 (generated by Phonopy) Lattice="4.137640 0.000000 0.000000 -0.000000 4.137640 0.000000 0.000000 -0.000000 4.137640"
Au      -0.047411314668054      0.038084148407036      0.111562195970183
Au       0.017140694622723      2.180382083748707      2.106904052076148
Au       2.180382068331497      0.017140678958152      2.021408574042907
Au       2.106904056729584      2.021408604186933      0.017140724913566
4
q [0.5, 0.5, 0.5] , b 11 , f 1.139292 , div 19 / 20 (generated by Phonopy) Lattice="4.137640 0.000000 0.000000 -0.000000 4.137640 0.000000 0.000000 -0.000000 4.137640"
Au      -0.020667947446926      0.024279671199250      0.062909387875419
Au       0.013269049594254      2.131729276027515      2.093099574980207
Au       2.131729259963296      0.013269033974506      2.048151941252121
Au       2.093099579722658      2.048151970489177      0.013269080401379
