4
q [0.5, 0.5, 0.5] , b 5 , f 0.198241 , div 0 / 20 (generated by Phonopy) Lattice="4.137640 0.000000 0.000000 -0.000000 4.137640 0.000000 0.000000 -0.000000 4.137640"
Au       0.008977303486138      0.008977296124954      0.008977334444263
Au       0.008977297479871      2.077797216537610      2.077797192276321
Au       2.077797207726142      0.008977282796452      2.077797192139373
Au       2.077797177408562      2.077797224784350      0.008977326915931
4
q [0.5, 0.5, 0.5] , b 5 , f 0.198241 , div 1 / 20 (generated by Phonopy) Lattice="4.137640 0.000000 0.000000 -0.000000 4.137640 0.000000 0.000000 -0.000000 4.137640"
Au      -0.007828127278477     -0.071115600763165      0.001471016206749
Au       0.008541974176087      2.098871181458954      2.092551294375591
Au       2.064229560889853      0.004856116329302      2.080181293878553
Au       2.143135972856290      2.092218554115122      0.013533816736258
4
q [0.5, 0.5, 0.5] , b 5 , f 0.198241 , div 2 / 20 (generated by Phonopy) Lattice="4.137640 0.000000 0.000000 -0.000000 4.137640 0.000000 0.000000 -0.000000 4.137640"
Au      -0.022988525389531     -0.143368447361134     -0.005300531238925
Au       0.008149263355669      2.117882280105871      2.105861162296455
Au       2.051990009692572      0.001138358297976      2.082332023176364
Au       2.202078953600978      2.105228223507498      0.017644285718580
4
q [0.5, 0.5, 0.5] , b 5 , f 0.198241 , div 3 / 20 (generated by Phonopy) Lattice="4.137640 0.000000 0.000000 -0.000000 4.137640 0.000000 0.000000 -0.000000 4.137640"
Au      -0.035019885451208     -0.200708631628761     -0.010674461648631
Au       0.007837606289896      2.132969573684686      2.116423933431516
Au       2.042276646683459     -0.001812071238278      2.084038851664123
Au       2.248856370007441      2.115552755877655      0.020906372519587
4
q [0.5, 0.5, 0.5] , b 5 , f 0.198241 , div 4 / 20 (generated by Phonopy) Lattice="4.137640 0.000000 0.000000 -0.000000 4.137640 0.000000 0.000000 -0.000000 4.137640"
Au      -0.042744494113257     -0.237523296817373     -0.014124737271493
Au       0.007637510143808      2.142656212780549      2.123205650146922
Au       2.036040283510823     -0.003706363679600      2.085134703077277
Au       2.278889322640389      2.122181514061956      0.023000761354900
4
q [0.5, 0.5, 0.5] , b 5 , f 0.198241 , div 5 / 20 (generated by Phonopy) Lattice="4.137640 0.000000 0.000000 -0.000000 4.137640 0.000000 0.000000 -0.000000 4.137640"
Au      -0.045406212859323     -0.250208766995455     -0.015313621090060
Au       0.007568561722337      2.145994001667975      2.125542470759568
Au       2.033891378853301     -0.004359092483521      2.085512307844259
Au       2.289237976844225      2.124465629024047      0.023722438852854
4
q [0.5, 0.5, 0.5] , b 5 , f 0.198241 , div 6 / 20 (generated by Phonopy) Lattice="4.137640 0.000000 0.000000 -0.000000 4.137640 0.000000 0.000000 -0.000000 4.137640"
Au      -0.042744494113257     -0.237523299957109     -0.014124736872731
Au       0.007637510177368      2.142656214314920      2.123205650986303
Au       2.036040282471070     -0.003706364006884      2.085134703379551
Au       2.278889334242162      2.122181515677075      0.023000762191726
4
q [0.5, 0.5, 0.5] , b 5 , f 0.198241 , div 7 / 20 (generated by Phonopy) Lattice="4.137640 0.000000 0.000000 -0.000000 4.137640 0.000000 0.000000 -0.000000 4.137640"
Au      -0.035019885451208     -0.200708637600893     -0.010674460890142
Au       0.007837606353730      2.132969576603231      2.116423935028114
Au       2.042276644705730     -0.001812071860810      2.084038852239082
Au       2.248856392075325      2.115552758949793      0.020906374111325
4
q [0.5, 0.5, 0.5] , b 5 , f 0.198241 , div 8 / 20 (generated by Phonopy) Lattice="4.137640 0.000000 0.000000 -0.000000 4.137640 0.000000 0.000000 -0.000000 4.137640"
Au      -0.022988525389531     -0.143368455581069     -0.005300530194954
Au       0.008149263443530      2.117882284122905      2.105861164493983
Au       2.051990006970462      0.001138357441134      2.082332023967727
Au       2.202078983974814      2.105228227735933      0.017644287909420
4
q [0.5, 0.5, 0.5] , b 5 , f 0.198241 , div 9 / 20 (generated by Phonopy) Lattice="4.137640 0.000000 0.000000 -0.000000 4.137640 0.000000 0.000000 -0.000000 4.137640"
Au      -0.007828127278477     -0.071115610426278      0.001471017434011
Au       0.008541974279374      2.098871186181261      2.092551296958940
Au       2.064229557689821      0.004856115322024      2.080181294808856
Au       2.143136008562876      2.092218559085945      0.013533819311744
4
q [0.5, 0.5, 0.5] , b 5 , f 0.198241 , div 10 / 20 (generated by Phonopy) Lattice="4.137640 0.000000 0.000000 -0.000000 4.137640 0.000000 0.000000 -0.000000 4.137640"
Au       0.008977303486138      0.008977285964555      0.008977335734683
Au       0.008977297588473      2.077797221502936      2.077797194992616
Au       2.077797204361430      0.008977281737337      2.077797193117552
Au       2.077797214952688      2.077797230010983      0.008977329623958
4
q [0.5, 0.5, 0.5] , b 5 , f 0.198241 , div 11 / 20 (generated by Phonopy) Lattice="4.137640 0.000000 0.000000 -0.000000 4.137640 0.000000 0.000000 -0.000000 4.137640"
Au       0.025782734250753      0.089070182852674      0.016483653972197
Au       0.009412620892257      2.056723256581592      2.063043092893346
Au       2.091364851197720      0.013098448204487      2.075413091378372
Au       2.012458419504960      2.063375900680211      0.004420839803630
4
q [0.5, 0.5, 0.5] , b 5 , f 0.198241 , div 12 / 20 (generated by Phonopy) Lattice="4.137640 0.000000 0.000000 -0.000000 4.137640 0.000000 0.000000 -0.000000 4.137640"
Au       0.040943132361806      0.161323029450643      0.023255201417871
Au       0.009805331712675      2.037712157934675      2.049733224972482
Au       2.103604402395001      0.016816206235813      2.073262362080561
Au       1.953515438760272      2.050366231287836      0.000310370821308
4
q [0.5, 0.5, 0.5] , b 5 , f 0.198241 , div 13 / 20 (generated by Phonopy) Lattice="4.137640 0.000000 0.000000 -0.000000 4.137640 0.000000 0.000000 -0.000000 4.137640"
Au       0.052974492423484      0.218663213718270      0.028629131827577
Au       0.010116988778448      2.022624864355860      2.039170453837420
Au       2.113317765404114      0.019766635772067      2.071555533592802
Au       1.906738022353809      2.040041698917678     -0.002951715979699
4
q [0.5, 0.5, 0.5] , b 5 , f 0.198241 , div 14 / 20 (generated by Phonopy) Lattice="4.137640 0.000000 0.000000 -0.000000 4.137640 0.000000 0.000000 -0.000000 4.137640"
Au       0.060699101085533      0.255477878906882      0.032079407450439
Au       0.010317084924535      2.012938225259997      2.032388737122015
Au       2.119554128576750      0.021660928213389      2.070459682179648
Au       1.876705069720861      2.033412940733377     -0.005046104815012
4
q [0.5, 0.5, 0.5] , b 5 , f 0.198241 , div 15 / 20 (generated by Phonopy) Lattice="4.137640 0.000000 0.000000 -0.000000 4.137640 0.000000 0.000000 -0.000000 4.137640"
Au       0.063360819831599      0.268163349084964      0.033268291269006
Au       0.010386033346006      2.009600436372571      2.030051916509369
Au       2.121703033234271      0.022313657017310      2.070082077412666
Au       1.866356415517026      2.031128825771286     -0.005767782312966
4
q [0.5, 0.5, 0.5] , b 5 , f 0.198241 , div 16 / 20 (generated by Phonopy) Lattice="4.137640 0.000000 0.000000 -0.000000 4.137640 0.000000 0.000000 -0.000000 4.137640"
Au       0.060699101085533      0.255477882046618      0.032079407051677
Au       0.010317084890975      2.012938223725626      2.032388736282634
Au       2.119554129616503      0.021660928540673      2.070459681877374
Au       1.876705058119088      2.033412939118259     -0.005046105651838
4
q [0.5, 0.5, 0.5] , b 5 , f 0.198241 , div 17 / 20 (generated by Phonopy) Lattice="4.137640 0.000000 0.000000 -0.000000 4.137640 0.000000 0.000000 -0.000000 4.137640"
Au       0.052974492423484      0.218663219690402      0.028629131069087
Au       0.010116988714613      2.022624861437314      2.039170452240822
Au       2.113317767381842      0.019766636394600      2.071555533017843
Au       1.906738000285926      2.040041695845540     -0.002951717571437
4
q [0.5, 0.5, 0.5] , b 5 , f 0.198241 , div 18 / 20 (generated by Phonopy) Lattice="4.137640 0.000000 0.000000 -0.000000 4.137640 0.000000 0.000000 -0.000000 4.137640"
Au       0.040943132361807      0.161323037670578      0.023255200373899
Au       0.009805331624814      2.037712153917641      2.049733222774953
Au       2.103604405117110      0.016816207092655      2.073262361289198
Au       1.953515408386436      2.050366227059401      0.000310368630468
4
q [0.5, 0.5, 0.5] , b 5 , f 0.198241 , div 19 / 20 (generated by Phonopy) Lattice="4.137640 0.000000 0.000000 -0.000000 4.137640 0.000000 0.000000 -0.000000 4.137640"
Au       0.025782734250753      0.089070192515787      0.016483652744935
Au       0.009412620788970      2.056723251859285      2.063043090309996
Au       2.091364854397752      0.013098449211765      2.075413090448069
Au       2.012458383798374      2.063375895709388      0.004420837228144
