4
q [0.5, 0.5, 0.5] , b 10 , f 1.139292 , div 0 / 20 (generated by Phonopy) Lattice="4.137640 0.000000 0.000000 -0.000000 4.137640 0.000000 0.000000 -0.000000 4.137640"
Au       0.008977303486138      0.008977291558280      0.008977335628434
Au       0.008977298481619      2.077797219448511      2.077797189872997
Au       2.077797206562911      0.008977282474281      2.077797192220421
Au       2.077797184959596      2.077797221145845      0.008977330790590
4
q [0.5, 0.5, 0.5] , b 10 , f 1.139292 , div 1 / 20 (generated by Phonopy) Lattice="4.137640 0.000000 0.000000 -0.000000 4.137640 0.000000 0.000000 -0.000000 4.137640"
Au       0.038352055494136      0.064113157909087      0.010405360754090
Au      -0.002650694336325      2.079225244346004      2.132933056113552
Au       2.079225231615729     -0.002650710144392      2.107171944144699
Au       2.132933051974841      2.107171973635051     -0.002650661817113
4
q [0.5, 0.5, 0.5] , b 10 , f 1.139292 , div 2 / 20 (generated by Phonopy) Lattice="4.137640 0.000000 0.000000 -0.000000 4.137640 0.000000 0.000000 -0.000000 4.137640"
Au       0.064851402109659      0.113851941457040      0.011693600778053
Au      -0.013140458293001      2.080513484174977      2.182671839980511
Au       2.080513471575926     -0.013140473848861      2.133671290724641
Au       2.182671837270853      2.133671321296652     -0.013140425738123
4
q [0.5, 0.5, 0.5] , b 10 , f 1.139292 , div 3 / 20 (generated by Phonopy) Lattice="4.137640 0.000000 0.000000 -0.000000 4.137640 0.000000 0.000000 -0.000000 4.137640"
Au       0.085881402654176      0.153324863517983      0.012715953791082
Au      -0.021465182205847      2.081535837045276      2.222144762758492
Au       2.081535824540502     -0.021465197481252      2.154701291285196
Au       2.222144761992362      2.154701323349716     -0.021465149793371
4
q [0.5, 0.5, 0.5] , b 10 , f 1.139292 , div 4 / 20 (generated by Phonopy) Lattice="4.137640 0.000000 0.000000 -0.000000 4.137640 0.000000 0.000000 -0.000000 4.137640"
Au       0.099383494149759      0.178668039456571      0.013372344757110
Au      -0.026809984096512      2.082192227934804      2.247487939741962
Au       2.082192215478134     -0.026809999090665      2.168203382846867
Au       2.247487941243589      2.168203416668650     -0.026809951990564
4
q [0.5, 0.5, 0.5] , b 10 , f 1.139292 , div 5 / 20 (generated by Phonopy) Lattice="4.137640 0.000000 0.000000 -0.000000 4.137640 0.000000 0.000000 -0.000000 4.137640"
Au       0.104035997806218      0.187400702635645      0.013598521555036
Au      -0.028651677516512      2.082418404729949      2.256220604191481
Au       2.082418392270499     -0.028651692256150      2.172855886612995
Au       2.256220608063112      2.172855922284781     -0.028651645851216
4
q [0.5, 0.5, 0.5] , b 10 , f 1.139292 , div 6 / 20 (generated by Phonopy) Lattice="4.137640 0.000000 0.000000 -0.000000 4.137640 0.000000 0.000000 -0.000000 4.137640"
Au       0.099383494149759      0.178668039139195      0.013372344424013
Au      -0.026809984682066      2.082192227670138      2.247487942066679
Au       2.082192215157297     -0.026809999218837      2.168203383099050
Au       2.247487948178567      2.168203420532489     -0.026809953548409
4
q [0.5, 0.5, 0.5] , b 10 , f 1.139292 , div 7 / 20 (generated by Phonopy) Lattice="4.137640 0.000000 0.000000 -0.000000 4.137640 0.000000 0.000000 -0.000000 4.137640"
Au       0.085881402654176      0.153324862914298      0.012715953157495
Au      -0.021465183319638      2.081535836541851      2.222144767180367
Au       2.081535823930235     -0.021465197725049      2.154701291764877
Au       2.222144775183473      2.154701330699174     -0.021465152756568
4
q [0.5, 0.5, 0.5] , b 10 , f 1.139292 , div 8 / 20 (generated by Phonopy) Lattice="4.137640 0.000000 0.000000 -0.000000 4.137640 0.000000 0.000000 -0.000000 4.137640"
Au       0.064851402109659      0.113851940626139      0.011693599905996
Au      -0.013140459826002      2.080513483482073      2.182671846066699
Au       2.080513470735965     -0.013140474184419      2.133671291384867
Au       2.182671855426860      2.133671331412313     -0.013140429816614
4
q [0.5, 0.5, 0.5] , b 10 , f 1.139292 , div 9 / 20 (generated by Phonopy) Lattice="4.137640 0.000000 0.000000 -0.000000 4.137640 0.000000 0.000000 -0.000000 4.137640"
Au       0.038352055494136      0.064113156932304      0.010405359728925
Au      -0.002650696138476      2.079225243531447      2.132933063268295
Au       2.079225230628295     -0.002650710538864      2.107171944920841
Au       2.132933073318508      2.107171985526724     -0.002650666611666
4
q [0.5, 0.5, 0.5] , b 10 , f 1.139292 , div 10 / 20 (generated by Phonopy) Lattice="4.137640 0.000000 0.000000 -0.000000 4.137640 0.000000 0.000000 -0.000000 4.137640"
Au       0.008977303486138      0.008977290531229      0.008977334550512
Au       0.008977296586725      2.077797218592035      2.077797197395939
Au       2.077797205524662      0.008977282059508      2.077797193036504
Au       2.077797207401654      2.077797233649489      0.008977325749298
4
q [0.5, 0.5, 0.5] , b 10 , f 1.139292 , div 11 / 20 (generated by Phonopy) Lattice="4.137640 0.000000 0.000000 -0.000000 4.137640 0.000000 0.000000 -0.000000 4.137640"
Au      -0.020397448521860     -0.046158575819578      0.007549309424856
Au       0.020605289404668      2.076369193694541      2.022661331155385
Au       2.076369180471844      0.020605274678181      2.048422441112225
Au       2.022661340386409      2.048422481160282      0.020605318357001
4
q [0.5, 0.5, 0.5] , b 10 , f 1.139292 , div 12 / 20 (generated by Phonopy) Lattice="4.137640 0.000000 0.000000 -0.000000 4.137640 0.000000 0.000000 -0.000000 4.137640"
Au      -0.046896795137383     -0.095897359367531      0.006261069400893
Au       0.031095053361344      2.075080953865569      1.972922547288425
Au       2.075080940511647      0.031095038382650      2.021923094532284
Au       1.972922555090397      2.021923133498682      0.031095082278011
4
q [0.5, 0.5, 0.5] , b 10 , f 1.139292 , div 13 / 20 (generated by Phonopy) Lattice="4.137640 0.000000 0.000000 -0.000000 4.137640 0.000000 0.000000 -0.000000 4.137640"
Au      -0.067926795681900     -0.135370281428474      0.005238716387864
Au       0.039419777274190      2.074058600995270      1.933449624510444
Au       2.074058587547071      0.039419762015041      2.000893093971729
Au       1.933449630368888      2.000893131445618      0.039419806333259
4
q [0.5, 0.5, 0.5] , b 10 , f 1.139292 , div 14 / 20 (generated by Phonopy) Lattice="4.137640 0.000000 0.000000 -0.000000 4.137640 0.000000 0.000000 -0.000000 4.137640"
Au      -0.081428887177483     -0.160713457367062      0.004582325421836
Au       0.044764579164855      2.073402210105742      1.908106447526975
Au       2.073402196609439      0.044764563624454      1.987391002410058
Au       1.908106451117661      1.987391038126683      0.044764608530452
4
q [0.5, 0.5, 0.5] , b 10 , f 1.139292 , div 15 / 20 (generated by Phonopy) Lattice="4.137640 0.000000 0.000000 -0.000000 4.137640 0.000000 0.000000 -0.000000 4.137640"
Au      -0.086081390833942     -0.169446120546136      0.004356148623910
Au       0.046606272584856      2.073176033310597      1.899373783077456
Au       2.073176019817073      0.046606256789939      1.982738498643930
Au       1.899373784298138      1.982738532510553      0.046606302391104
4
q [0.5, 0.5, 0.5] , b 10 , f 1.139292 , div 16 / 20 (generated by Phonopy) Lattice="4.137640 0.000000 0.000000 -0.000000 4.137640 0.000000 0.000000 -0.000000 4.137640"
Au      -0.081428887177483     -0.160713457049686      0.004582325754932
Au       0.044764579750410      2.073402210370408      1.908106445202258
Au       2.073402196930276      0.044764563752626      1.987391002157874
Au       1.908106444182683      1.987391034262845      0.044764610088297
4
q [0.5, 0.5, 0.5] , b 10 , f 1.139292 , div 17 / 20 (generated by Phonopy) Lattice="4.137640 0.000000 0.000000 -0.000000 4.137640 0.000000 0.000000 -0.000000 4.137640"
Au      -0.067926795681900     -0.135370280824789      0.005238717021450
Au       0.039419778387981      2.074058601498694      1.933449620088570
Au       2.074058588157338      0.039419762258838      2.000893093492047
Au       1.933449617177777      2.000893124096160      0.039419809296456
4
q [0.5, 0.5, 0.5] , b 10 , f 1.139292 , div 18 / 20 (generated by Phonopy) Lattice="4.137640 0.000000 0.000000 -0.000000 4.137640 0.000000 0.000000 -0.000000 4.137640"
Au      -0.046896795137383     -0.095897358536630      0.006261070272950
Au       0.031095054894346      2.075080954558473      1.972922541202237
Au       2.075080941351608      0.031095038718208      2.021923093872058
Au       1.972922536934390      2.021923123383021      0.031095086356502
4
q [0.5, 0.5, 0.5] , b 10 , f 1.139292 , div 19 / 20 (generated by Phonopy) Lattice="4.137640 0.000000 0.000000 -0.000000 4.137640 0.000000 0.000000 -0.000000 4.137640"
Au      -0.020397448521860     -0.046158574842795      0.007549310450021
Au       0.020605291206820      2.076369194509099      2.022661324000642
Au       2.076369181459278      0.020605275072653      2.048422440336084
Au       2.022661319042742      2.048422469268609      0.020605323151554
