4
q [0.5, 0.5, 0.5] , b 12 , f 1.139292 , div 0 / 20 (generated by Phonopy) Lattice="4.137640 0.000000 0.000000 -0.000000 4.137640 0.000000 0.000000 -0.000000 4.137640"
Au       0.008977303486138      0.008977291140778      0.008977335013067
Au       0.008977293256280      2.077797217792634      2.077797194199457
Au       2.077797205761132      0.008977281349913      2.077797192190417
Au       2.077797197563925      2.077797220686150      0.008977316847531
4
q [0.5, 0.5, 0.5] , b 12 , f 1.139292 , div 1 / 20 (generated by Phonopy) Lattice="4.137640 0.000000 0.000000 -0.000000 4.137640 0.000000 0.000000 -0.000000 4.137640"
Au       0.040511970570196      0.002928909065040      0.023825125330784
Au       0.061784624811107      2.092645008663975      2.071748812029389
Au       2.092644996212749      0.061784612689938      2.109331859550925
Au       2.071748815231170      2.109331888341074      0.061784648375794
4
q [0.5, 0.5, 0.5] , b 12 , f 1.139292 , div 2 / 20 (generated by Phonopy) Lattice="4.137640 0.000000 0.000000 -0.000000 4.137640 0.000000 0.000000 -0.000000 4.137640"
Au       0.068959804725122     -0.002527415240968      0.037219510489044
Au       0.109422807241784      2.106039394434356      2.066292487592377
Au       2.106039381511991      0.109422794597850      2.137779693998118
Au       2.066292490567295      2.137779723667954      0.109422831481863
4
q [0.5, 0.5, 0.5] , b 12 , f 1.139292 , div 3 / 20 (generated by Phonopy) Lattice="4.137640 0.000000 0.000000 -0.000000 4.137640 0.000000 0.000000 -0.000000 4.137640"
Au       0.091536133736115     -0.006857578737727      0.047849354744387
Au       0.147228683337262      2.116669239300401      2.061962323940767
Au       2.116669225901598      0.147228669913771      2.160356023288587
Au       2.061962326646851      2.160356054337273      0.147228708888577
4
q [0.5, 0.5, 0.5] , b 12 , f 1.139292 , div 4 / 20 (generated by Phonopy) Lattice="4.137640 0.000000 0.000000 -0.000000 4.137640 0.000000 0.000000 -0.000000 4.137640"
Au       0.106031029221047     -0.009637714852152      0.054674134878621
Au       0.171501550536287      2.123494019984136      2.059182187662800
Au       2.123494006150235      0.171501536152758      2.174850919012847
Au       2.059182190084397      2.174850951804572      0.171501577906329
4
q [0.5, 0.5, 0.5] , b 12 , f 1.139292 , div 5 / 20 (generated by Phonopy) Lattice="4.137640 0.000000 0.000000 -0.000000 4.137640 0.000000 0.000000 -0.000000 4.137640"
Au       0.111025629817976     -0.010595684491016      0.057025793861167
Au       0.179865411478410      2.125845679401194      2.058224217867713
Au       2.125845665216124      0.179865396048334      2.179845519785529
Au       2.058224220017014      2.179845554513863      0.179865440996640
4
q [0.5, 0.5, 0.5] , b 12 , f 1.139292 , div 6 / 20 (generated by Phonopy) Lattice="4.137640 0.000000 0.000000 -0.000000 4.137640 0.000000 0.000000 -0.000000 4.137640"
Au       0.106031029221047     -0.009637714911498      0.054674134925842
Au       0.171501553180170      2.123494020742859      2.059182187313618
Au       2.123494006324925      0.171501536719483      2.174850919283573
Au       2.059182189229470      2.174850955952517      0.171501584965768
4
q [0.5, 0.5, 0.5] , b 12 , f 1.139292 , div 7 / 20 (generated by Phonopy) Lattice="4.137640 0.000000 0.000000 -0.000000 4.137640 0.000000 0.000000 -0.000000 4.137640"
Au       0.091536133736115     -0.006857578850610      0.047849354834207
Au       0.147228688366225      2.116669240743577      2.061962323276582
Au       2.116669226233879      0.147228670991747      2.160356023803540
Au       2.061962325020685      2.160356062227134      0.147228722316428
4
q [0.5, 0.5, 0.5] , b 12 , f 1.139292 , div 8 / 20 (generated by Phonopy) Lattice="4.137640 0.000000 0.000000 -0.000000 4.137640 0.000000 0.000000 -0.000000 4.137640"
Au       0.068959804725122     -0.002527415396337      0.037219510612671
Au       0.109422814163558      2.106039396420718      2.066292486678206
Au       2.106039381969336      0.109422796081556      2.137779694706889
Au       2.066292488329069      2.137779734527416      0.109422849963716
4
q [0.5, 0.5, 0.5] , b 12 , f 1.139292 , div 9 / 20 (generated by Phonopy) Lattice="4.137640 0.000000 0.000000 -0.000000 4.137640 0.000000 0.000000 -0.000000 4.137640"
Au       0.040511970570196      0.002928908882392      0.023825125476116
Au       0.061784632948141      2.092645010999083      2.071748810954715
Au       2.092644996750390      0.061784614434140      2.109331860384136
Au       2.071748812599977      2.109331901107137      0.061784670102515
4
q [0.5, 0.5, 0.5] , b 12 , f 1.139292 , div 10 / 20 (generated by Phonopy) Lattice="4.137640 0.000000 0.000000 -0.000000 4.137640 0.000000 0.000000 -0.000000 4.137640"
Au       0.008977303486138      0.008977290948731      0.008977335165878
Au       0.008977301812064      2.077797220247912      2.077797193069479
Au       2.077797206326441      0.008977283183876      2.077797193066508
Au       2.077797194797325      2.077797234109183      0.008977339692357
4
q [0.5, 0.5, 0.5] , b 12 , f 1.139292 , div 11 / 20 (generated by Phonopy) Lattice="4.137640 0.000000 0.000000 -0.000000 4.137640 0.000000 0.000000 -0.000000 4.137640"
Au      -0.022557363597921      0.015025673024468     -0.005870455151838
Au      -0.043830029742764      2.062949429376571      2.083845575239548
Au       2.062949415874824     -0.043830048156149      2.046262525706000
Au       2.083845577130080      2.046262566454260     -0.043829991835906
4
q [0.5, 0.5, 0.5] , b 12 , f 1.139292 , div 12 / 20 (generated by Phonopy) Lattice="4.137640 0.000000 0.000000 -0.000000 4.137640 0.000000 0.000000 -0.000000 4.137640"
Au      -0.051005197752846      0.020481997330477     -0.019264840310098
Au      -0.091468212173440      2.049555043606190      2.089301899676559
Au       2.049555030575582     -0.091468230064060      2.017814691258807
Au       2.089301901793954      2.017814731127380     -0.091468174941975
4
q [0.5, 0.5, 0.5] , b 12 , f 1.139292 , div 13 / 20 (generated by Phonopy) Lattice="4.137640 0.000000 0.000000 -0.000000 4.137640 0.000000 0.000000 -0.000000 4.137640"
Au      -0.073581526763840      0.024812160827236     -0.029894684565441
Au      -0.129274088268918      2.038925198740145      2.093632063328170
Au       2.038925186185975     -0.129274105379982      1.995238361968338
Au       2.093632065714399      1.995238400458061     -0.129274052348688
4
q [0.5, 0.5, 0.5] , b 12 , f 1.139292 , div 14 / 20 (generated by Phonopy) Lattice="4.137640 0.000000 0.000000 -0.000000 4.137640 0.000000 0.000000 -0.000000 4.137640"
Au      -0.088076422248771      0.027592296941661     -0.036719464699675
Au      -0.153546955467944      2.032100418056410      2.096412199606136
Au       2.032100405937338     -0.153546971618969      1.980743466244078
Au       2.096412202276853      1.980743502990762     -0.153546921366441
4
q [0.5, 0.5, 0.5] , b 12 , f 1.139292 , div 15 / 20 (generated by Phonopy) Lattice="4.137640 0.000000 0.000000 -0.000000 4.137640 0.000000 0.000000 -0.000000 4.137640"
Au      -0.093071022845701      0.028550266580524     -0.039071123682221
Au      -0.161910816410067      2.029748758639352      2.097370169401223
Au       2.029748746871449     -0.161910831514545      1.975748865471396
Au       2.097370172344236      1.975748900281471     -0.161910784456751
4
q [0.5, 0.5, 0.5] , b 12 , f 1.139292 , div 16 / 20 (generated by Phonopy) Lattice="4.137640 0.000000 0.000000 -0.000000 4.137640 0.000000 0.000000 -0.000000 4.137640"
Au      -0.088076422248771      0.027592297001007     -0.036719464746896
Au      -0.153546958111826      2.032100417297687      2.096412199955319
Au       2.032100405762648     -0.153546972185694      1.980743465973351
Au       2.096412203131780      1.980743498842816     -0.153546928425880
4
q [0.5, 0.5, 0.5] , b 12 , f 1.139292 , div 17 / 20 (generated by Phonopy) Lattice="4.137640 0.000000 0.000000 -0.000000 4.137640 0.000000 0.000000 -0.000000 4.137640"
Au      -0.073581526763840      0.024812160940119     -0.029894684655261
Au      -0.129274093297881      2.038925197296968      2.093632063992354
Au       2.038925185853694     -0.129274106457958      1.995238361453385
Au       2.093632067340565      1.995238392568200     -0.129274065776540
4
q [0.5, 0.5, 0.5] , b 12 , f 1.139292 , div 18 / 20 (generated by Phonopy) Lattice="4.137640 0.000000 0.000000 -0.000000 4.137640 0.000000 0.000000 -0.000000 4.137640"
Au      -0.051005197752846      0.020481997485846     -0.019264840433725
Au      -0.091468219095215      2.049555041619828      2.089301900590731
Au       2.049555030118237     -0.091468231547767      2.017814690550035
Au       2.089301904032181      2.017814720267917     -0.091468193423827
4
q [0.5, 0.5, 0.5] , b 12 , f 1.139292 , div 19 / 20 (generated by Phonopy) Lattice="4.137640 0.000000 0.000000 -0.000000 4.137640 0.000000 0.000000 -0.000000 4.137640"
Au      -0.022557363597921      0.015025673207116     -0.005870455297171
Au      -0.043830037879797      2.062949427041463      2.083845576314221
Au       2.062949415337183     -0.043830049900351      2.046262524872789
Au       2.083845579761272      2.046262553688197     -0.043830013562627
