4
q [0.5, 0.5, 0.5] , b 3 , f 0.198241 , div 0 / 20 (generated by Phonopy) Lattice="4.137640 0.000000 0.000000 -0.000000 4.137640 0.000000 0.000000 -0.000000 4.137640"
Au       0.008977303486138      0.008977286427204      0.008977336984198
Au       0.008977299140880      2.077797208623358      2.077797197560963
Au       2.077797217406774      0.008977285546413      2.077797175456289
Au       2.077797196142650      2.077797234704713      0.008977326273338
4
q [0.5, 0.5, 0.5] , b 3 , f 0.198241 , div 1 / 20 (generated by Phonopy) Lattice="4.137640 0.000000 0.000000 -0.000000 4.137640 0.000000 0.000000 -0.000000 4.137640"
Au       0.023120873414518     -0.007336207737639      0.008709402394084
Au       0.011711002065664      2.032789261251702      2.098071307359828
Au       2.123073098806660      0.021643315720624      2.013077299437676
Au       2.073836580462896      2.128373541180118     -0.006422406486195
4
q [0.5, 0.5, 0.5] , b 3 , f 0.198241 , div 2 / 20 (generated by Phonopy) Lattice="4.137640 0.000000 0.000000 -0.000000 4.137640 0.000000 0.000000 -0.000000 4.137640"
Au       0.035879972174263     -0.022052822978831      0.008467694922992
Au       0.014177110944066      1.992187006375314      2.116360845649198
Au       2.163917060367220      0.033069506290941      1.954692657494589
Au       2.070263657444825      2.173999085676598     -0.020314705911536
4
q [0.5, 0.5, 0.5] , b 3 , f 0.198241 , div 3 / 20 (generated by Phonopy) Lattice="4.137640 0.000000 0.000000 -0.000000 4.137640 0.000000 0.000000 -0.000000 4.137640"
Au       0.046005650280899     -0.033731994459878      0.008275874582267
Au       0.016134225856677      1.959964875594040      2.130875504990603
Au       2.196331010554296      0.042137382113388      1.908358345170136
Au       2.067428169687465      2.210207722006976     -0.031339696941591
4
q [0.5, 0.5, 0.5] , b 3 , f 0.198241 , div 4 / 20 (generated by Phonopy) Lattice="4.137640 0.000000 0.000000 -0.000000 4.137640 0.000000 0.000000 -0.000000 4.137640"
Au       0.052506735811602     -0.041230483502641      0.008152718083350
Au       0.017390770759830      1.939276995573537      2.140194489398129
Au       2.217142046082304      0.047959316322860      1.878609887784773
Au       2.065607674488511      2.233455096566831     -0.038418176638708
4
q [0.5, 0.5, 0.5] , b 3 , f 0.198241 , div 5 / 20 (generated by Phonopy) Lattice="4.137640 0.000000 0.000000 -0.000000 4.137640 0.000000 0.000000 -0.000000 4.137640"
Au       0.054746857218899     -0.043814285754571      0.008110280842437
Au       0.017823746283541      1.932148440151148      2.143405591748784
Au       2.224313037794754      0.049965417435132      1.868359271617068
Au       2.064980374602173      2.241465594360262     -0.040857254091467
4
q [0.5, 0.5, 0.5] , b 3 , f 0.198241 , div 6 / 20 (generated by Phonopy) Lattice="4.137640 0.000000 0.000000 -0.000000 4.137640 0.000000 0.000000 -0.000000 4.137640"
Au       0.052506735811602     -0.041230480648838      0.008152716912346
Au       0.017390769766830      1.939277001999183      2.140194486971422
Au       2.217142039059592      0.047959314296006      1.878609898397759
Au       2.065607674511980      2.233455092050828     -0.038418175404738
4
q [0.5, 0.5, 0.5] , b 3 , f 0.198241 , div 7 / 20 (generated by Phonopy) Lattice="4.137640 0.000000 0.000000 -0.000000 4.137640 0.000000 0.000000 -0.000000 4.137640"
Au       0.046005650280899     -0.033731989031621      0.008275872354885
Au       0.016134223967879      1.959964887816345      2.130875500374731
Au       2.196330997196303      0.042137378258083      1.908358365357237
Au       2.067428169732106      2.210207713417028     -0.031339694594440
4
q [0.5, 0.5, 0.5] , b 3 , f 0.198241 , div 8 / 20 (generated by Phonopy) Lattice="4.137640 0.000000 0.000000 -0.000000 4.137640 0.000000 0.000000 -0.000000 4.137640"
Au       0.035879972174263     -0.022052815507477      0.008467691857263
Au       0.014177108344358      1.992187023197874      2.116360839295995
Au       2.163917041981520      0.033069500984569      1.954692685279749
Au       2.070263657506269      2.173999073853548     -0.020314702680960
4
q [0.5, 0.5, 0.5] , b 3 , f 0.198241 , div 9 / 20 (generated by Phonopy) Lattice="4.137640 0.000000 0.000000 -0.000000 4.137640 0.000000 0.000000 -0.000000 4.137640"
Au       0.023120873414518     -0.007336198954536      0.008709398790103
Au       0.011710999009524      2.032789281027808      2.098071299891190
Au       2.123073077192972      0.021643309482610      2.013077332101091
Au       2.073836580535128      2.128373527281290     -0.006422402688425
4
q [0.5, 0.5, 0.5] , b 3 , f 0.198241 , div 10 / 20 (generated by Phonopy) Lattice="4.137640 0.000000 0.000000 -0.000000 4.137640 0.000000 0.000000 -0.000000 4.137640"
Au       0.008977303486138      0.008977295662305      0.008977333194748
Au       0.008977295927464      2.077797229417187      2.077797189707973
Au       2.077797194680798      0.008977278987376      2.077797209800636
Au       2.077797196218599      2.077797220090621      0.008977330266550
4
q [0.5, 0.5, 0.5] , b 3 , f 0.198241 , div 11 / 20 (generated by Phonopy) Lattice="4.137640 0.000000 0.000000 -0.000000 4.137640 0.000000 0.000000 -0.000000 4.137640"
Au      -0.005166266442243      0.025290789827148      0.009245267784861
Au       0.006243593002680      2.122805176788844      2.057523079909108
Au       2.032521313280913     -0.003688751186835      2.142517085819248
Au       2.081757811898354      2.027220913615216      0.024377063026083
4
q [0.5, 0.5, 0.5] , b 3 , f 0.198241 , div 12 / 20 (generated by Phonopy) Lattice="4.137640 0.000000 0.000000 -0.000000 4.137640 0.000000 0.000000 -0.000000 4.137640"
Au      -0.017925365201987      0.040007405068340      0.009486975255953
Au       0.003777484124278      2.163407431665232      2.039233541619739
Au       1.991677351720352     -0.015114941757152      2.200901727762336
Au       2.085330734916425      1.981595369118736      0.038269362451424
4
q [0.5, 0.5, 0.5] , b 3 , f 0.198241 , div 13 / 20 (generated by Phonopy) Lattice="4.137640 0.000000 0.000000 -0.000000 4.137640 0.000000 0.000000 -0.000000 4.137640"
Au      -0.028051043308623      0.051686576549387      0.009678795596678
Au       0.001820369211666      2.195629562446506      2.024718882278334
Au       1.959263401533277     -0.024182817579599      2.247236040086789
Au       2.088166222673785      1.945386732788358      0.049294353481479
4
q [0.5, 0.5, 0.5] , b 3 , f 0.198241 , div 14 / 20 (generated by Phonopy) Lattice="4.137640 0.000000 0.000000 -0.000000 4.137640 0.000000 0.000000 -0.000000 4.137640"
Au      -0.034552128839326      0.059185065592150      0.009801952095595
Au       0.000563824308513      2.216317442467009      2.015399897870808
Au       1.938452366005269     -0.030004751789071      2.276984497472152
Au       2.089986717872739      1.922139358228502      0.056372833178597
4
q [0.5, 0.5, 0.5] , b 3 , f 0.198241 , div 15 / 20 (generated by Phonopy) Lattice="4.137640 0.000000 0.000000 -0.000000 4.137640 0.000000 0.000000 -0.000000 4.137640"
Au      -0.036792250246623      0.061768867844079      0.009844389336509
Au       0.000130848784803      2.223445997889398      2.012188795520153
Au       1.931281374292819     -0.032010852901343      2.287235113639857
Au       2.090614017759077      1.914128860435071      0.058811910631355
4
q [0.5, 0.5, 0.5] , b 3 , f 0.198241 , div 16 / 20 (generated by Phonopy) Lattice="4.137640 0.000000 0.000000 -0.000000 4.137640 0.000000 0.000000 -0.000000 4.137640"
Au      -0.034552128839326      0.059185062738347      0.009801953266600
Au       0.000563825301513      2.216317436041363      2.015399900297515
Au       1.938452373027981     -0.030004749762217      2.276984486859165
Au       2.089986717849270      1.922139362744505      0.056372831944626
4
q [0.5, 0.5, 0.5] , b 3 , f 0.198241 , div 17 / 20 (generated by Phonopy) Lattice="4.137640 0.000000 0.000000 -0.000000 4.137640 0.000000 0.000000 -0.000000 4.137640"
Au      -0.028051043308623      0.051686571121130      0.009678797824061
Au       0.001820371100464      2.195629550224201      2.024718886894206
Au       1.959263414891270     -0.024182813724294      2.247236019899688
Au       2.088166222629144      1.945386741378306      0.049294351134328
4
q [0.5, 0.5, 0.5] , b 3 , f 0.198241 , div 18 / 20 (generated by Phonopy) Lattice="4.137640 0.000000 0.000000 -0.000000 4.137640 0.000000 0.000000 -0.000000 4.137640"
Au      -0.017925365201987      0.040007397596986      0.009486978321683
Au       0.003777486723985      2.163407414842672      2.039233547972942
Au       1.991677370106053     -0.015114936450780      2.200901699977176
Au       2.085330734854981      1.981595380941785      0.038269359220848
4
q [0.5, 0.5, 0.5] , b 3 , f 0.198241 , div 19 / 20 (generated by Phonopy) Lattice="4.137640 0.000000 0.000000 -0.000000 4.137640 0.000000 0.000000 -0.000000 4.137640"
Au      -0.005166266442243      0.025290781044044      0.009245271388842
Au       0.006243596058820      2.122805157012738      2.057523087377747
Au       2.032521334894601     -0.003688744948821      2.142517053155834
Au       2.081757811826122      2.027220927514044      0.024377059228313
