4
q [0.5, 0.5, 0.5] , b 6 , f 0.198241 , div 0 / 20 (generated by Phonopy) Lattice="4.137640 0.000000 0.000000 -0.000000 4.137640 0.000000 0.000000 -0.000000 4.137640"
Au       0.008977303486138      0.008977292025054      0.008977333251016
Au       0.008977297817156      2.077797220709017      2.077797193794273
Au       2.077797208164795      0.008977276902999      2.077797191485773
Au       2.077797192740062      2.077797233200881      0.008977346209595
4
q [0.5, 0.5, 0.5] , b 6 , f 0.198241 , div 1 / 20 (generated by Phonopy) Lattice="4.137640 0.000000 0.000000 -0.000000 4.137640 0.000000 0.000000 -0.000000 4.137640"
Au       0.018015308404741     -0.000780275073235      0.051522551731187
Au       0.008341956504456      2.056109597637792      2.076143326026009
Au       2.056939612653976      0.074045987575919      2.091555026953359
Au       2.089208627588313      2.055001392902047     -0.055456024047907
4
q [0.5, 0.5, 0.5] , b 6 , f 0.198241 , div 2 / 20 (generated by Phonopy) Lattice="4.137640 0.000000 0.000000 -0.000000 4.137640 0.000000 0.000000 -0.000000 4.137640"
Au       0.026168610430428     -0.009582703614935      0.089903147976512
Au       0.007768806798426      2.036544910054029      2.074651350342435
Au       2.038123703707551      0.132745320012864      2.103966149740756
Au       2.099503032022261      2.034436967711561     -0.113582208846974
4
q [0.5, 0.5, 0.5] , b 6 , f 0.198241 , div 3 / 20 (generated by Phonopy) Lattice="4.137640 0.000000 0.000000 -0.000000 4.137640 0.000000 0.000000 -0.000000 4.137640"
Au       0.032639107553529     -0.016568350564257      0.120362161813161
Au       0.007313952585661      2.021018285893618      2.073467311718664
Au       2.023191313591340      0.179329374572608      2.113815672676156
Au       2.107672718010579      2.018116946847846     -0.159711412230530
4
q [0.5, 0.5, 0.5] , b 6 , f 0.198241 , div 4 / 20 (generated by Phonopy) Lattice="4.137640 0.000000 0.000000 -0.000000 4.137640 0.000000 0.000000 -0.000000 4.137640"
Au       0.036793422433031     -0.021053412125939      0.139918052746373
Au       0.007021918165662      2.011049579309733      2.072707112104873
Au       2.013604128690000      0.209238179424649      2.120139455828981
Au       2.112917979767181      2.007638847661312     -0.189328186370334
4
q [0.5, 0.5, 0.5] , b 6 , f 0.198241 , div 5 / 20 (generated by Phonopy) Lattice="4.137640 0.000000 0.000000 -0.000000 4.137640 0.000000 0.000000 -0.000000 4.137640"
Au       0.038224901783715     -0.022598859225061      0.146656553917703
Au       0.006921289902182      2.007614596758869      2.072445165135882
Au       2.010300609459517      0.219544052363174      2.122318483243844
Au       2.114725374525443      2.004028339505548     -0.199533435061383
4
q [0.5, 0.5, 0.5] , b 6 , f 0.198241 , div 6 / 20 (generated by Phonopy) Lattice="4.137640 0.000000 0.000000 -0.000000 4.137640 0.000000 0.000000 -0.000000 4.137640"
Au       0.036793422433031     -0.021053412731797      0.139918053882603
Au       0.007021917990768      2.011049578266032      2.072707112006109
Au       2.013604127379145      0.209238182739719      2.120139456535202
Au       2.112917981893566      2.007638844074728     -0.189328197457648
4
q [0.5, 0.5, 0.5] , b 6 , f 0.198241 , div 7 / 20 (generated by Phonopy) Lattice="4.137640 0.000000 0.000000 -0.000000 4.137640 0.000000 0.000000 -0.000000 4.137640"
Au       0.032639107553529     -0.016568351716669      0.120362163974397
Au       0.007313952252993      2.021018283908381      2.073467311530803
Au       2.023191311097945      0.179329380878246      2.113815674019468
Au       2.107672722055204      2.018116940025758     -0.159711433319854
4
q [0.5, 0.5, 0.5] , b 6 , f 0.198241 , div 8 / 20 (generated by Phonopy) Lattice="4.137640 0.000000 0.000000 -0.000000 4.137640 0.000000 0.000000 -0.000000 4.137640"
Au       0.026168610430428     -0.009582705201093      0.089903150951198
Au       0.007768806340548      2.036544907321583      2.074651350083867
Au       2.038123700275686      0.132745328691830      2.103966151589666
Au       2.099503037589209      2.034436958321763     -0.113582237873938
4
q [0.5, 0.5, 0.5] , b 6 , f 0.198241 , div 9 / 20 (generated by Phonopy) Lattice="4.137640 0.000000 0.000000 -0.000000 4.137640 0.000000 0.000000 -0.000000 4.137640"
Au       0.018015308404741     -0.000780276937876      0.051522555228140
Au       0.008341955966188      2.056109594425611      2.076143325722044
Au       2.056939608619578      0.074045997778655      2.091555029126884
Au       2.089208634132652      2.055001381863677     -0.055456058171150
4
q [0.5, 0.5, 0.5] , b 6 , f 0.198241 , div 10 / 20 (generated by Phonopy) Lattice="4.137640 0.000000 0.000000 -0.000000 4.137640 0.000000 0.000000 -0.000000 4.137640"
Au       0.008977303486138      0.008977290064455      0.008977336927930
Au       0.008977297251187      2.077797217331529      2.077797193474664
Au       2.077797203922778      0.008977287630791      2.077797193771152
Au       2.077797199621188      2.077797221594452      0.008977310330293
4
q [0.5, 0.5, 0.5] , b 6 , f 0.198241 , div 11 / 20 (generated by Phonopy) Lattice="4.137640 0.000000 0.000000 -0.000000 4.137640 0.000000 0.000000 -0.000000 4.137640"
Au      -0.000060701432465      0.018734857162744     -0.033567881552241
Au       0.009612638563887      2.099484840402754      2.079451061242928
Au       2.098654799433596     -0.056091423042130      2.064039358303566
Au       2.066385764772937      2.100593061893287      0.073410680587795
4
q [0.5, 0.5, 0.5] , b 6 , f 0.198241 , div 12 / 20 (generated by Phonopy) Lattice="4.137640 0.000000 0.000000 -0.000000 4.137640 0.000000 0.000000 -0.000000 4.137640"
Au      -0.008214003458152      0.027537285704444     -0.071948477797566
Au       0.010185788269917      2.119049527986517      2.080943036926502
Au       2.117470708380022     -0.114790755479075      2.051628235516169
Au       2.056091360338989      2.121157487083772      0.131536865386862
4
q [0.5, 0.5, 0.5] , b 6 , f 0.198241 , div 13 / 20 (generated by Phonopy) Lattice="4.137640 0.000000 0.000000 -0.000000 4.137640 0.000000 0.000000 -0.000000 4.137640"
Au      -0.014684500581254      0.034522932653766     -0.102407491634215
Au       0.010640642482682      2.134576152146928      2.082127075550273
Au       2.132403098496233     -0.161374810038819      2.041778712580768
Au       2.047921674350671      2.137477507947488      0.177666068770418
4
q [0.5, 0.5, 0.5] , b 6 , f 0.198241 , div 14 / 20 (generated by Phonopy) Lattice="4.137640 0.000000 0.000000 -0.000000 4.137640 0.000000 0.000000 -0.000000 4.137640"
Au      -0.018838815460756      0.039007994215448     -0.121963382567428
Au       0.010932676902682      2.144544858730812      2.082887275164063
Au       2.141990283397573     -0.191283614890860      2.035454929427944
Au       2.042676412594069      2.147955607134022      0.207282842910222
4
q [0.5, 0.5, 0.5] , b 6 , f 0.198241 , div 15 / 20 (generated by Phonopy) Lattice="4.137640 0.000000 0.000000 -0.000000 4.137640 0.000000 0.000000 -0.000000 4.137640"
Au      -0.020270294811439      0.040553441314569     -0.128701883738758
Au       0.011033305166162      2.147979841281677      2.083149222133054
Au       2.145293802628055     -0.201589487829385      2.033275902013080
Au       2.040869017835807      2.151566115289786      0.217488091601271
4
q [0.5, 0.5, 0.5] , b 6 , f 0.198241 , div 16 / 20 (generated by Phonopy) Lattice="4.137640 0.000000 0.000000 -0.000000 4.137640 0.000000 0.000000 -0.000000 4.137640"
Au      -0.018838815460756      0.039007994821306     -0.121963383703657
Au       0.010932677077576      2.144544859774514      2.082887275262828
Au       2.141990284708428     -0.191283618205930      2.035454928721723
Au       2.042676410467684      2.147955610720606      0.207282853997536
4
q [0.5, 0.5, 0.5] , b 6 , f 0.198241 , div 17 / 20 (generated by Phonopy) Lattice="4.137640 0.000000 0.000000 -0.000000 4.137640 0.000000 0.000000 -0.000000 4.137640"
Au      -0.014684500581254      0.034522933806177     -0.102407493795451
Au       0.010640642815350      2.134576154132165      2.082127075738134
Au       2.132403100989627     -0.161374816344457      2.041778711237456
Au       2.047921670306046      2.137477514769575      0.177666089859742
4
q [0.5, 0.5, 0.5] , b 6 , f 0.198241 , div 18 / 20 (generated by Phonopy) Lattice="4.137640 0.000000 0.000000 -0.000000 4.137640 0.000000 0.000000 -0.000000 4.137640"
Au      -0.008214003458152      0.027537287290602     -0.071948480772252
Au       0.010185788727796      2.119049530718963      2.080943037185070
Au       2.117470711811886     -0.114790764158041      2.051628233667258
Au       2.056091354772041      2.121157496473570      0.131536894413827
4
q [0.5, 0.5, 0.5] , b 6 , f 0.198241 , div 19 / 20 (generated by Phonopy) Lattice="4.137640 0.000000 0.000000 -0.000000 4.137640 0.000000 0.000000 -0.000000 4.137640"
Au      -0.000060701432465      0.018734859027385     -0.033567885049194
Au       0.009612639102155      2.099484843614935      2.079451061546893
Au       2.098654803467995     -0.056091433244866      2.064039356130041
Au       2.066385758228598      2.100593072931657      0.073410714711039
