4
q [0.5, 0.5, 0.5] , b 7 , f 0.198241 , div 0 / 20 (generated by Phonopy) Lattice="4.137640 0.000000 0.000000 -0.000000 4.137640 0.000000 0.000000 -0.000000 4.137640"
Au       0.008977303486138      0.008977290404642      0.008977336509501
Au       0.008977299212393      2.077797216583075      2.077797193334420
Au       2.077797203403475      0.008977279843738      2.077797192257107
Au       2.077797198581308      2.077797226670311      0.008977335738330
4
q [0.5, 0.5, 0.5] , b 7 , f 0.198241 , div 1 / 20 (generated by Phonopy) Lattice="4.137640 0.000000 0.000000 -0.000000 4.137640 0.000000 0.000000 -0.000000 4.137640"
Au      -0.003992578800552      0.015609070881071     -0.064304966542044
Au      -0.013956768519881      2.119269972802701      2.078159972937220
Au       2.109606749868610      0.058370811841644      2.086149843427263
Au       2.070802638564603      2.082414457831718     -0.017482129375564
4
q [0.5, 0.5, 0.5] , b 7 , f 0.198241 , div 2 / 20 (generated by Phonopy) Lattice="4.137640 0.000000 0.000000 -0.000000 4.137640 0.000000 0.000000 -0.000000 4.137640"
Au      -0.015692878642536      0.021591686540795     -0.130413887322078
Au      -0.034645890075749      2.156683086924437      2.078487241174235
Au       2.138302556554048      0.102929361019816      2.093684878940891
Au       2.064492754581304      2.086579722308104     -0.041351558421234
4
q [0.5, 0.5, 0.5] , b 7 , f 0.198241 , div 3 / 20 (generated by Phonopy) Lattice="4.137640 0.000000 0.000000 -0.000000 4.137640 0.000000 0.000000 -0.000000 4.137640"
Au      -0.024978289170501      0.026339517279705     -0.182878224056715
Au      -0.051064870087739      2.186374302665552      2.078746962750213
Au       2.161075677965975      0.138291226127029      2.099664717022239
Au       2.059485202039241      2.089885294991416     -0.060294445375599
4
q [0.5, 0.5, 0.5] , b 7 , f 0.198241 , div 4 / 20 (generated by Phonopy) Lattice="4.137640 0.000000 0.000000 -0.000000 4.137640 0.000000 0.000000 -0.000000 4.137640"
Au      -0.030939889706707      0.029387812344994     -0.216562401925841
Au      -0.061606504394515      2.205437236958443      2.078913714307712
Au       2.175696922310927      0.160994941425985      2.103504009455923
Au       2.056270155070902      2.092007603396133     -0.072456528480711
4
q [0.5, 0.5, 0.5] , b 7 , f 0.198241 , div 5 / 20 (generated by Phonopy) Lattice="4.137640 0.000000 0.000000 -0.000000 4.137640 0.000000 0.000000 -0.000000 4.137640"
Au      -0.032994117253760      0.030438183376952     -0.228169178908158
Au      -0.065238904382245      2.212005876975247      2.078971173042456
Au       2.180735060320218      0.168818109077138      2.104826939548610
Au       2.055162324874098      2.092738901188608     -0.076647298304025
4
q [0.5, 0.5, 0.5] , b 7 , f 0.198241 , div 6 / 20 (generated by Phonopy) Lattice="4.137640 0.000000 0.000000 -0.000000 4.137640 0.000000 0.000000 -0.000000 4.137640"
Au      -0.030939889706707      0.029387812740605     -0.216562402803467
Au      -0.061606505431712      2.205437238464714      2.078913714493151
Au       2.175696923942729      0.160994942923579      2.103504009685433
Au       2.056270153587199      2.092007603845663     -0.072456533096427
4
q [0.5, 0.5, 0.5] , b 7 , f 0.198241 , div 7 / 20 (generated by Phonopy) Lattice="4.137640 0.000000 0.000000 -0.000000 4.137640 0.000000 0.000000 -0.000000 4.137640"
Au      -0.024978289170501      0.026339518032202     -0.182878225726059
Au      -0.051064872060606      2.186374305530650      2.078746963102940
Au       2.161075681069847      0.138291228975620      2.099664717458793
Au       2.059485199217069      2.089885295846474     -0.060294454155213
4
q [0.5, 0.5, 0.5] , b 7 , f 0.198241 , div 8 / 20 (generated by Phonopy) Lattice="4.137640 0.000000 0.000000 -0.000000 4.137640 0.000000 0.000000 -0.000000 4.137640"
Au      -0.015692878642536      0.021591687576519     -0.130413889619732
Au      -0.034645892791168      2.156683090867906      2.078487241659722
Au       2.138302560826161      0.102929364940566      2.093684879541756
Au       2.064492750696917      2.086579723484990     -0.041351570505336
4
q [0.5, 0.5, 0.5] , b 7 , f 0.198241 , div 9 / 20 (generated by Phonopy) Lattice="4.137640 0.000000 0.000000 -0.000000 4.137640 0.000000 0.000000 -0.000000 4.137640"
Au      -0.003992578800552      0.015609072098638     -0.064304969243099
Au      -0.013956771712046      2.119269977438528      2.078159973507945
Au       2.109606754890781      0.058370816450761      2.086149844133621
Au       2.070802633998233      2.082414459215231     -0.017482143581278
4
q [0.5, 0.5, 0.5] , b 7 , f 0.198241 , div 10 / 20 (generated by Phonopy) Lattice="4.137640 0.000000 0.000000 -0.000000 4.137640 0.000000 0.000000 -0.000000 4.137640"
Au       0.008977303486138      0.008977291684867      0.008977333669445
Au       0.008977295855951      2.077797221457471      2.077797193934516
Au       2.077797208684098      0.008977284690051      2.077797192999817
Au       2.077797193779942      2.077797228125022      0.008977320801558
4
q [0.5, 0.5, 0.5] , b 7 , f 0.198241 , div 11 / 20 (generated by Phonopy) Lattice="4.137640 0.000000 0.000000 -0.000000 4.137640 0.000000 0.000000 -0.000000 4.137640"
Au       0.021947185772827      0.002345511208438      0.082259636720990
Au       0.031911363588224      2.036324465237845      2.077434414331716
Au       2.045987662218963     -0.040416247307855      2.069444541829662
Au       2.084791753796646      2.073179996963615      0.035436785915452
4
q [0.5, 0.5, 0.5] , b 7 , f 0.198241 , div 12 / 20 (generated by Phonopy) Lattice="4.137640 0.000000 0.000000 -0.000000 4.137640 0.000000 0.000000 -0.000000 4.137640"
Au       0.033647485614812     -0.003637104451286      0.148368557501024
Au       0.052600485144093      1.998911351116109      2.077107146094702
Au       2.017291855533525     -0.084974796486027      2.061909506316034
Au       2.091101637779946      2.069014732487229      0.059306214961123
4
q [0.5, 0.5, 0.5] , b 7 , f 0.198241 , div 13 / 20 (generated by Phonopy) Lattice="4.137640 0.000000 0.000000 -0.000000 4.137640 0.000000 0.000000 -0.000000 4.137640"
Au       0.042932896142776     -0.008384935190196      0.200832894235661
Au       0.069019465156082      1.969220135374994      2.076847424518724
Au       1.994518734121598     -0.120336661593240      2.055929668234686
Au       2.096109190322009      2.065709159803917      0.078249101915487
4
q [0.5, 0.5, 0.5] , b 7 , f 0.198241 , div 14 / 20 (generated by Phonopy) Lattice="4.137640 0.000000 0.000000 -0.000000 4.137640 0.000000 0.000000 -0.000000 4.137640"
Au       0.048894496678983     -0.011433230255485      0.234517072104787
Au       0.079561099462858      1.950157201082103      2.076680672961225
Au       1.979897489776646     -0.143040376892196      2.052090375801002
Au       2.099324237290348      2.063586851399200      0.090411185020599
4
q [0.5, 0.5, 0.5] , b 7 , f 0.198241 , div 15 / 20 (generated by Phonopy) Lattice="4.137640 0.000000 0.000000 -0.000000 4.137640 0.000000 0.000000 -0.000000 4.137640"
Au       0.050948724226035     -0.012483601287443      0.246123849087104
Au       0.083193499450589      1.943588561065299      2.076623214226481
Au       1.974859351767355     -0.150863544543349      2.050767445708315
Au       2.100432067487152      2.062855553606725      0.094601954843913
4
q [0.5, 0.5, 0.5] , b 7 , f 0.198241 , div 16 / 20 (generated by Phonopy) Lattice="4.137640 0.000000 0.000000 -0.000000 4.137640 0.000000 0.000000 -0.000000 4.137640"
Au       0.048894496678983     -0.011433230651097      0.234517072982413
Au       0.079561100500056      1.950157199575832      2.076680672775785
Au       1.979897488144844     -0.143040378389790      2.052090375571492
Au       2.099324238774051      2.063586850949670      0.090411189636315
4
q [0.5, 0.5, 0.5] , b 7 , f 0.198241 , div 17 / 20 (generated by Phonopy) Lattice="4.137640 0.000000 0.000000 -0.000000 4.137640 0.000000 0.000000 -0.000000 4.137640"
Au       0.042932896142776     -0.008384935942693      0.200832895905004
Au       0.069019467128949      1.969220132509895      2.076847424165996
Au       1.994518731017725     -0.120336664441831      2.055929667798132
Au       2.096109193144181      2.065709158948859      0.078249110695101
4
q [0.5, 0.5, 0.5] , b 7 , f 0.198241 , div 18 / 20 (generated by Phonopy) Lattice="4.137640 0.000000 0.000000 -0.000000 4.137640 0.000000 0.000000 -0.000000 4.137640"
Au       0.033647485614812     -0.003637105487010      0.148368559798678
Au       0.052600487859511      1.998911347172640      2.077107145609214
Au       2.017291851261411     -0.084974800406777      2.061909505715169
Au       2.091101641664333      2.069014731310344      0.059306227045224
4
q [0.5, 0.5, 0.5] , b 7 , f 0.198241 , div 19 / 20 (generated by Phonopy) Lattice="4.137640 0.000000 0.000000 -0.000000 4.137640 0.000000 0.000000 -0.000000 4.137640"
Au       0.021947185772827      0.002345509990871      0.082259639422044
Au       0.031911366780390      2.036324460602018      2.077434413760991
Au       2.045987657196792     -0.040416251916972      2.069444541123303
Au       2.084791758363017      2.073179995580103      0.035436800121166
