4
q [0.5, 0.5, 0.5] , b 4 , f 0.198241 , div 0 / 20 (generated by Phonopy) Lattice="4.137640 0.000000 0.000000 -0.000000 4.137640 0.000000 0.000000 -0.000000 4.137640"
Au       0.008977303486138      0.008977292266988      0.008977335115245
Au       0.008977298740845      2.077797219943213      2.077797192138609
Au       2.077797204625778      0.008977281759263      2.077797196981939
Au       2.077797193822541      2.077797235990698      0.008977325225464
4
q [0.5, 0.5, 0.5] , b 4 , f 0.198241 , div 1 / 20 (generated by Phonopy) Lattice="4.137640 0.000000 0.000000 -0.000000 4.137640 0.000000 0.000000 -0.000000 4.137640"
Au       0.090113706813665     -0.008623420374237     -0.006545470383478
Au      -0.009994487457841      2.081782932478706      2.086032930033513
Au       2.089334297430017      0.010089846077686      2.056073257974016
Au       2.087162168996395      2.018384770950983      0.026836547844394
4
q [0.5, 0.5, 0.5] , b 4 , f 0.198241 , div 2 / 20 (generated by Phonopy) Lattice="4.137640 0.000000 0.000000 -0.000000 4.137640 0.000000 0.000000 -0.000000 4.137640"
Au       0.163307913672931     -0.024501252750404     -0.020548795528765
Au      -0.027109183157311      2.085378495610789      2.093462496667928
Au       2.099742059345729      0.011093504898620      2.036475809049624
Au       2.095610435381438      1.964788011099194      0.042947585618878
4
q [0.5, 0.5, 0.5] , b 4 , f 0.198241 , div 3 / 20 (generated by Phonopy) Lattice="4.137640 0.000000 0.000000 -0.000000 4.137640 0.000000 0.000000 -0.000000 4.137640"
Au       0.221395165122525     -0.037101972001170     -0.031661897288489
Au      -0.040691482697402      2.088231950568332      2.099358634294844
Au       2.108001706121463      0.011890013103772      2.020923185052938
Au       2.102315017801371      1.922253380720209      0.055733377919348
4
q [0.5, 0.5, 0.5] , b 4 , f 0.198241 , div 4 / 20 (generated by Phonopy) Lattice="4.137640 0.000000 0.000000 -0.000000 4.137640 0.000000 0.000000 -0.000000 4.137640"
Au       0.258689476272880     -0.045192131931897     -0.038796947832877
Au      -0.049411855965687      2.090063981298902      2.103144187882532
Au       2.113304725982468      0.012401402920421      2.010937785182255
Au       2.106619625015357      1.894944465791718      0.063942362311580
4
q [0.5, 0.5, 0.5] , b 4 , f 0.198241 , div 5 / 20 (generated by Phonopy) Lattice="4.137640 0.000000 0.000000 -0.000000 4.137640 0.000000 0.000000 -0.000000 4.137640"
Au       0.271540220103857     -0.047979811321106     -0.041255518701823
Au      -0.052416692068251      2.090695255870081      2.104448601070326
Au       2.115132022396435      0.012577615950251      2.007497049949290
Au       2.108102892077329      1.885534453179321      0.066770986207907
4
q [0.5, 0.5, 0.5] , b 4 , f 0.198241 , div 6 / 20 (generated by Phonopy) Lattice="4.137640 0.000000 0.000000 -0.000000 4.137640 0.000000 0.000000 -0.000000 4.137640"
Au       0.258689476272880     -0.045192132687279     -0.038796947848805
Au      -0.049411856711452      2.090063980728494      2.103144188807023
Au       2.113304726858845      0.012401403234154      2.010937782491658
Au       2.106619626472732      1.894944460480933      0.063942364193173
4
q [0.5, 0.5, 0.5] , b 4 , f 0.198241 , div 7 / 20 (generated by Phonopy) Lattice="4.137640 0.000000 0.000000 -0.000000 4.137640 0.000000 0.000000 -0.000000 4.137640"
Au       0.221395165122525     -0.037101973437991     -0.031661897318787
Au      -0.040691484115932      2.088231949483351      2.099358636053331
Au       2.108001707788432      0.011890013700529      2.020923179935119
Au       2.102315020573464      1.922253370618495      0.055733381498349
4
q [0.5, 0.5, 0.5] , b 4 , f 0.198241 , div 8 / 20 (generated by Phonopy) Lattice="4.137640 0.000000 0.000000 -0.000000 4.137640 0.000000 0.000000 -0.000000 4.137640"
Au       0.163307913672931     -0.024501254728019     -0.020548795570466
Au      -0.027109185109749      2.085378494117441      2.093462499088278
Au       2.099742061640114      0.011093505719986      2.036475802005552
Au       2.095610439196898      1.964787997195377      0.042947590544951
4
q [0.5, 0.5, 0.5] , b 4 , f 0.198241 , div 9 / 20 (generated by Phonopy) Lattice="4.137640 0.000000 0.000000 -0.000000 4.137640 0.000000 0.000000 -0.000000 4.137640"
Au       0.090113706813665     -0.008623422699063     -0.006545470432501
Au      -0.009994489753070      2.081782930723170      2.086032932878806
Au       2.089334300127228      0.010089847043259      2.056073249693213
Au       2.087162173481736      2.018384754606066      0.026836553635340
4
q [0.5, 0.5, 0.5] , b 4 , f 0.198241 , div 10 / 20 (generated by Phonopy) Lattice="4.137640 0.000000 0.000000 -0.000000 4.137640 0.000000 0.000000 -0.000000 4.137640"
Au       0.008977303486138      0.008977289822521      0.008977335063700
Au       0.008977296327499      2.077797218097333      2.077797195130327
Au       2.077797207461795      0.008977282774526      2.077797188274986
Au       2.077797198538708      2.077797218804635      0.008977331314424
4
q [0.5, 0.5, 0.5] , b 4 , f 0.198241 , div 11 / 20 (generated by Phonopy) Lattice="4.137640 0.000000 0.000000 -0.000000 4.137640 0.000000 0.000000 -0.000000 4.137640"
Au      -0.072159099841390      0.026578002463746      0.024500140562424
Au       0.027949082526185      2.073811505561840      2.069561457235424
Au       2.066260114657556      0.007864718456103      2.099521127282908
Au       2.068432223364855      2.137209683844350     -0.008881891304506
4
q [0.5, 0.5, 0.5] , b 4 , f 0.198241 , div 12 / 20 (generated by Phonopy) Lattice="4.137640 0.000000 0.000000 -0.000000 4.137640 0.000000 0.000000 -0.000000 4.137640"
Au      -0.145353306700656      0.042455834839913      0.038503465707710
Au       0.045063778225654      2.070215942429757      2.062131890601009
Au       2.055852352741844      0.006861059635169      2.119118576207300
Au       2.059983956979812      2.190806443696139     -0.024992929078990
4
q [0.5, 0.5, 0.5] , b 4 , f 0.198241 , div 13 / 20 (generated by Phonopy) Lattice="4.137640 0.000000 0.000000 -0.000000 4.137640 0.000000 0.000000 -0.000000 4.137640"
Au      -0.203440558150249      0.055056554090679      0.049616567467435
Au       0.058646077765746      2.067362487472213      2.056235752974093
Au       2.047592705966110      0.006064551430017      2.134671200203987
Au       2.053279374559879      2.233341074075125     -0.037778721379460
4
q [0.5, 0.5, 0.5] , b 4 , f 0.198241 , div 14 / 20 (generated by Phonopy) Lattice="4.137640 0.000000 0.000000 -0.000000 4.137640 0.000000 0.000000 -0.000000 4.137640"
Au      -0.240734869300605      0.063146714021406      0.056751618011823
Au       0.067366451034030      2.065530456741643      2.052450199386405
Au       2.042289686105105      0.005553161613368      2.144656600074670
Au       2.048974767345893      2.260649989003615     -0.045987705771692
4
q [0.5, 0.5, 0.5] , b 4 , f 0.198241 , div 15 / 20 (generated by Phonopy) Lattice="4.137640 0.000000 0.000000 -0.000000 4.137640 0.000000 0.000000 -0.000000 4.137640"
Au      -0.253585613131581      0.065934393410615      0.059210188880769
Au       0.070371287136594      2.064899182170465      2.051145786198611
Au       2.040462389691137      0.005376948583538      2.148097335307635
Au       2.047491500283921      2.270060001616012     -0.048816329668018
4
q [0.5, 0.5, 0.5] , b 4 , f 0.198241 , div 16 / 20 (generated by Phonopy) Lattice="4.137640 0.000000 0.000000 -0.000000 4.137640 0.000000 0.000000 -0.000000 4.137640"
Au      -0.240734869300605      0.063146714776787      0.056751618027751
Au       0.067366451779795      2.065530457312052      2.052450198461913
Au       2.042289685228728      0.005553161299635      2.144656602765266
Au       2.048974765888518      2.260649994314401     -0.045987707653284
4
q [0.5, 0.5, 0.5] , b 4 , f 0.198241 , div 17 / 20 (generated by Phonopy) Lattice="4.137640 0.000000 0.000000 -0.000000 4.137640 0.000000 0.000000 -0.000000 4.137640"
Au      -0.203440558150249      0.055056555527500      0.049616567497732
Au       0.058646079184275      2.067362488557194      2.056235751215605
Au       2.047592704299141      0.006064550833260      2.134671205321805
Au       2.053279371787786      2.233341084176839     -0.037778724958461
4
q [0.5, 0.5, 0.5] , b 4 , f 0.198241 , div 18 / 20 (generated by Phonopy) Lattice="4.137640 0.000000 0.000000 -0.000000 4.137640 0.000000 0.000000 -0.000000 4.137640"
Au      -0.145353306700656      0.042455836817528      0.038503465749411
Au       0.045063780178092      2.070215943923105      2.062131888180658
Au       2.055852350447458      0.006861058813803      2.119118583251373
Au       2.059983953164352      2.190806457599956     -0.024992934005062
4
q [0.5, 0.5, 0.5] , b 4 , f 0.198241 , div 19 / 20 (generated by Phonopy) Lattice="4.137640 0.000000 0.000000 -0.000000 4.137640 0.000000 0.000000 -0.000000 4.137640"
Au      -0.072159099841390      0.026578004788572      0.024500140611447
Au       0.027949084821414      2.073811507317376      2.069561454390131
Au       2.066260111960344      0.007864717490530      2.099521135563712
Au       2.068432218879514      2.137209700189268     -0.008881897095452
