4
q [0.5, 0.5, 0.5] , b 1 , f 0.198241 , div 0 / 20 (generated by Phonopy) Lattice="4.137640 0.000000 0.000000 -0.000000 4.137640 0.000000 0.000000 -0.000000 4.137640"
Au       0.008977303486138      0.008977292276717      0.008977334962621
Au       0.008977297664243      2.077797219042142      2.077797197964760
Au       2.077797206701141      0.008977282457451      2.077797192679899
Au       2.077797184789608      2.077797225970694      0.008977327890410
4
q [0.5, 0.5, 0.5] , b 1 , f 0.198241 , div 1 / 20 (generated by Phonopy) Lattice="4.137640 0.000000 0.000000 -0.000000 4.137640 0.000000 0.000000 -0.000000 4.137640"
Au       0.015469214676238      0.036098586702696      0.004772328925490
Au       0.006885551307937      2.068200465409808      1.992050813546917
Au       2.091598966377361      0.010103729768918      2.063937614359514
Au       2.136422274294583      2.085164893350210      0.009942626930122
4
q [0.5, 0.5, 0.5] , b 1 , f 0.198241 , div 2 / 20 (generated by Phonopy) Lattice="4.137640 0.000000 0.000000 -0.000000 4.137640 0.000000 0.000000 -0.000000 4.137640"
Au       0.021325652367247      0.060565059744497      0.000978938189691
Au       0.004998559646308      2.059543108885380      1.914697882242203
Au       2.104049713589612      0.011119912550465      2.051434708125454
Au       2.189308732688826      2.091811362252744      0.010813435811345
4
q [0.5, 0.5, 0.5] , b 1 , f 0.198241 , div 3 / 20 (generated by Phonopy) Lattice="4.137640 0.000000 0.000000 -0.000000 4.137640 0.000000 0.000000 -0.000000 4.137640"
Au       0.025973347633767      0.079981762552848     -0.002031513729450
Au       0.003501034570640      2.052672591844819      1.853310247916287
Au       2.113930682451302      0.011926359751274      2.041512345552779
Au       2.231279664943086      2.097086029993444      0.011504513693503
4
q [0.5, 0.5, 0.5] , b 1 , f 0.198241 , div 4 / 20 (generated by Phonopy) Lattice="4.137640 0.000000 0.000000 -0.000000 4.137640 0.000000 0.000000 -0.000000 4.137640"
Au       0.028957351680715      0.092448052972744     -0.003964342823034
Au       0.002539564269210      2.048261448365762      1.813896959929788
Au       2.120274654885490      0.012444130700481      2.035141796623267
Au       2.258226663779636      2.100472575343079      0.011948213058466
4
q [0.5, 0.5, 0.5] , b 1 , f 0.198241 , div 5 / 20 (generated by Phonopy) Lattice="4.137640 0.000000 0.000000 -0.000000 4.137640 0.000000 0.000000 -0.000000 4.137640"
Au       0.029985569401195      0.096743643640132     -0.004630350312570
Au       0.002208264154079      2.046741471906184      1.800316065519350
Au       2.122460638669264      0.012622542370055      2.032946655052362
Au       2.267511969201573      2.101639499647379      0.012101101520957
4
q [0.5, 0.5, 0.5] , b 1 , f 0.198241 , div 6 / 20 (generated by Phonopy) Lattice="4.137640 0.000000 0.000000 -0.000000 4.137640 0.000000 0.000000 -0.000000 4.137640"
Au       0.028957351680715      0.092448052211349     -0.003964342744635
Au       0.002539564188821      2.048261448352247      1.813896957253520
Au       2.120274654479223      0.012444130582711      2.035141796591477
Au       2.258226670819671      2.100472576224997      0.011948213293031
4
q [0.5, 0.5, 0.5] , b 1 , f 0.198241 , div 7 / 20 (generated by Phonopy) Lattice="4.137640 0.000000 0.000000 -0.000000 4.137640 0.000000 0.000000 -0.000000 4.137640"
Au       0.025973347633767      0.079981761104589     -0.002031513580326
Au       0.003501034417732      2.052672591819110      1.853310242825723
Au       2.113930681678535      0.011926359527262      2.041512345492312
Au       2.231279678334029      2.097086031670952      0.011504514139672
4
q [0.5, 0.5, 0.5] , b 1 , f 0.198241 , div 8 / 20 (generated by Phonopy) Lattice="4.137640 0.000000 0.000000 -0.000000 4.137640 0.000000 0.000000 -0.000000 4.137640"
Au       0.021325652367247      0.060565057751140      0.000978938394942
Au       0.004998559435848      2.059543108849994      1.914697875235643
Au       2.104049712525990      0.011119912242139      2.051434708042229
Au       2.189308751119878      2.091811364561635      0.010813436425445
4
q [0.5, 0.5, 0.5] , b 1 , f 0.198241 , div 9 / 20 (generated by Phonopy) Lattice="4.137640 0.000000 0.000000 -0.000000 4.137640 0.000000 0.000000 -0.000000 4.137640"
Au       0.015469214676239      0.036098584359364      0.004772329166777
Au       0.006885551060527      2.068200465368210      1.992050805310212
Au       2.091598965126998      0.010103729406458      2.063937614261676
Au       2.136422295961584      2.085164896064474      0.009942627652039
4
q [0.5, 0.5, 0.5] , b 1 , f 0.198241 , div 10 / 20 (generated by Phonopy) Lattice="4.137640 0.000000 0.000000 -0.000000 4.137640 0.000000 0.000000 -0.000000 4.137640"
Au       0.008977303486138      0.008977289812792      0.008977335216325
Au       0.008977297404101      2.077797218998404      2.077797189304176
Au       2.077797205386431      0.008977282076338      2.077797192577026
Au       2.077797207571642      2.077797228824640      0.008977328649478
4
q [0.5, 0.5, 0.5] , b 1 , f 0.198241 , div 11 / 20 (generated by Phonopy) Lattice="4.137640 0.000000 0.000000 -0.000000 4.137640 0.000000 0.000000 -0.000000 4.137640"
Au       0.002485392296037     -0.018144004613187      0.013182341253456
Au       0.011069043760407      2.087393972630738      2.163543573722019
Au       2.063995445710212      0.007850834764871      2.091656770897411
Au       2.019172118066667      2.070429561445124      0.008012029609766
4
q [0.5, 0.5, 0.5] , b 1 , f 0.198241 , div 12 / 20 (generated by Phonopy) Lattice="4.137640 0.000000 0.000000 -0.000000 4.137640 0.000000 0.000000 -0.000000 4.137640"
Au      -0.003371045394972     -0.042610477654988      0.016975731989255
Au       0.012956035422036      2.096051329155166      2.240896505026734
Au       2.051544698497961      0.006834651983324      2.104159677131471
Au       1.966285659672424      2.063783092542590      0.007141220728543
4
q [0.5, 0.5, 0.5] , b 1 , f 0.198241 , div 13 / 20 (generated by Phonopy) Lattice="4.137640 0.000000 0.000000 -0.000000 4.137640 0.000000 0.000000 -0.000000 4.137640"
Au      -0.008018740661492     -0.062027180463339      0.019986183908396
Au       0.014453560497704      2.102921846195727      2.302284139352650
Au       2.041663729636271      0.006028204782515      2.114082039704146
Au       1.924314727418164      2.058508424801889      0.006450142846386
4
q [0.5, 0.5, 0.5] , b 1 , f 0.198241 , div 14 / 20 (generated by Phonopy) Lattice="4.137640 0.000000 0.000000 -0.000000 4.137640 0.000000 0.000000 -0.000000 4.137640"
Au      -0.011002744708439     -0.074493470883235      0.021919013001980
Au       0.015415030799134      2.107332989674783      2.341697427339148
Au       2.035319757202082      0.005510433833308      2.120452588633658
Au       1.897367728581614      2.055121879452254      0.006006443481423
4
q [0.5, 0.5, 0.5] , b 1 , f 0.198241 , div 15 / 20 (generated by Phonopy) Lattice="4.137640 0.000000 0.000000 -0.000000 4.137640 0.000000 0.000000 -0.000000 4.137640"
Au      -0.012030962428920     -0.078789061550623      0.022585020491516
Au       0.015746330914264      2.108852966134362      2.355278321749587
Au       2.033133773418308      0.005332022163734      2.122647730204562
Au       1.888082423159677      2.053954955147955      0.005853555018932
4
q [0.5, 0.5, 0.5] , b 1 , f 0.198241 , div 16 / 20 (generated by Phonopy) Lattice="4.137640 0.000000 0.000000 -0.000000 4.137640 0.000000 0.000000 -0.000000 4.137640"
Au      -0.011002744708439     -0.074493470121840      0.021919012923581
Au       0.015415030879522      2.107332989688299      2.341697430015417
Au       2.035319757608350      0.005510433951078      2.120452588665448
Au       1.897367721541579      2.055121878570336      0.006006443246858
4
q [0.5, 0.5, 0.5] , b 1 , f 0.198241 , div 17 / 20 (generated by Phonopy) Lattice="4.137640 0.000000 0.000000 -0.000000 4.137640 0.000000 0.000000 -0.000000 4.137640"
Au      -0.008018740661492     -0.062027179015080      0.019986183759272
Au       0.014453560650612      2.102921846221436      2.302284144443214
Au       2.041663730409038      0.006028205006527      2.114082039764613
Au       1.924314714027221      2.058508423124382      0.006450142400216
4
q [0.5, 0.5, 0.5] , b 1 , f 0.198241 , div 18 / 20 (generated by Phonopy) Lattice="4.137640 0.000000 0.000000 -0.000000 4.137640 0.000000 0.000000 -0.000000 4.137640"
Au      -0.003371045394972     -0.042610475661631      0.016975731784004
Au       0.012956035632495      2.096051329190551      2.240896512033294
Au       2.051544699561583      0.006834652291650      2.104159677214696
Au       1.966285641241372      2.063783090233698      0.007141220114444
4
q [0.5, 0.5, 0.5] , b 1 , f 0.198241 , div 19 / 20 (generated by Phonopy) Lattice="4.137640 0.000000 0.000000 -0.000000 4.137640 0.000000 0.000000 -0.000000 4.137640"
Au       0.002485392296037     -0.018144002269855      0.013182341012168
Au       0.011069044007817      2.087393972672336      2.163543581958725
Au       2.063995446960575      0.007850835127331      2.091656770995248
Au       2.019172096399666      2.070429558730859      0.008012028887849
