4
q [0.5, 0.5, 0.5] , b 2 , f 0.198241 , div 0 / 20 (generated by Phonopy) Lattice="4.137640 0.000000 0.000000 -0.000000 4.137640 0.000000 0.000000 -0.000000 4.137640"
Au       0.008977303486138      0.008977292187716      0.008977334484701
Au       0.008977297934728      2.077797219330368      2.077797194054415
Au       2.077797203002935      0.008977282972089      2.077797189905699
Au       2.077797197036753      2.077797223877415      0.008977328392137
4
q [0.5, 0.5, 0.5] , b 2 , f 0.198241 , div 1 / 20 (generated by Phonopy) Lattice="4.137640 0.000000 0.000000 -0.000000 4.137640 0.000000 0.000000 -0.000000 4.137640"
Au       0.030208351110587      0.023627752136022      0.018276026207492
Au       0.000720805271109      2.132235237697711      2.072630544375697
Au       2.014060493068779      0.020764812710862      2.023702111250454
Au       2.068313386750450      2.110661254825953      0.005446291193588
4
q [0.5, 0.5, 0.5] , b 2 , f 0.198241 , div 2 / 20 (generated by Phonopy) Lattice="4.137640 0.000000 0.000000 -0.000000 4.137640 0.000000 0.000000 -0.000000 4.137640"
Au       0.049361155868149      0.036844122876950      0.026664497255860
Au      -0.006727484403437      2.181344483504926      2.067969642324590
Au       1.956562776680409      0.031398496841226      1.974902236063083
Au       2.059757917808757      2.140308325792668      0.002260896506254
4
q [0.5, 0.5, 0.5] , b 2 , f 0.198241 , div 3 / 20 (generated by Phonopy) Lattice="4.137640 0.000000 0.000000 -0.000000 4.137640 0.000000 0.000000 -0.000000 4.137640"
Au       0.064560907783714      0.047332693958508      0.033321625637677
Au      -0.012638480600281      2.220317801608170      2.064270729468270
Au       1.910932330928064      0.039837436271266      1.936174436135648
Au       2.052968259121146      2.163836374908046     -0.000267047043917
4
q [0.5, 0.5, 0.5] , b 2 , f 0.198241 , div 4 / 20 (generated by Phonopy) Lattice="4.137640 0.000000 0.000000 -0.000000 4.137640 0.000000 0.000000 -0.000000 4.137640"
Au       0.074319749236890      0.054066770965062      0.037595765243990
Au      -0.016433573827342      2.245340212088422      2.061895881168955
Au       1.881635781767994      0.045255568812023      1.911309658357497
Au       2.048609029786294      2.178942312795119     -0.001890086729018
4
q [0.5, 0.5, 0.5] , b 2 , f 0.198241 , div 5 / 20 (generated by Phonopy) Lattice="4.137640 0.000000 0.000000 -0.000000 4.137640 0.000000 0.000000 -0.000000 4.137640"
Au       0.077682416832392      0.056387175520137      0.039068533510451
Au      -0.017741273917586      2.253962347066489      2.061077564124723
Au       1.871540879553048      0.047122529900057      1.902741840420648
Au       2.047106941544032      2.184147465004240     -0.002449348116287
4
q [0.5, 0.5, 0.5] , b 2 , f 0.198241 , div 6 / 20 (generated by Phonopy) Lattice="4.137640 0.000000 0.000000 -0.000000 4.137640 0.000000 0.000000 -0.000000 4.137640"
Au       0.074319749236890      0.054066770258673      0.037595765617760
Au      -0.016433574074899      2.245340211896772      2.061895880909414
Au       1.881635783647344      0.045255568376189      1.911309660040258
Au       2.048609029257177      2.178942314970754     -0.001890086804537
4
q [0.5, 0.5, 0.5] , b 2 , f 0.198241 , div 7 / 20 (generated by Phonopy) Lattice="4.137640 0.000000 0.000000 -0.000000 4.137640 0.000000 0.000000 -0.000000 4.137640"
Au       0.064560907783714      0.047332692614876      0.033321626348629
Au      -0.012638481071163      2.220317801243631      2.064270728974593
Au       1.910932334502799      0.039837435442261      1.936174439336449
Au       2.052968258114707      2.163836379046351     -0.000267047187563
4
q [0.5, 0.5, 0.5] , b 2 , f 0.198241 , div 8 / 20 (generated by Phonopy) Lattice="4.137640 0.000000 0.000000 -0.000000 4.137640 0.000000 0.000000 -0.000000 4.137640"
Au       0.049361155868149      0.036844121027599      0.026664498234401
Au      -0.006727485051551      2.181344483003181      2.067969641645102
Au       1.956562781600610      0.031398495700198      1.974902240468607
Au       2.059757916423512      2.140308331488554      0.002260896308543
4
q [0.5, 0.5, 0.5] , b 2 , f 0.198241 , div 9 / 20 (generated by Phonopy) Lattice="4.137640 0.000000 0.000000 -0.000000 4.137640 0.000000 0.000000 -0.000000 4.137640"
Au       0.030208351110587      0.023627749961979      0.018276027357836
Au       0.000720804509205      2.132235237107874      2.072630543576911
Au       2.014060498852822      0.020764811369503      2.023702116429458
Au       2.068313385121997      2.110661261521870      0.005446290961164
4
q [0.5, 0.5, 0.5] , b 2 , f 0.198241 , div 10 / 20 (generated by Phonopy) Lattice="4.137640 0.000000 0.000000 -0.000000 4.137640 0.000000 0.000000 -0.000000 4.137640"
Au       0.008977303486138      0.008977289901792      0.008977335694245
Au       0.008977297133615      2.077797218710177      2.077797193214522
Au       2.077797209084638      0.008977281561700      2.077797195351226
Au       2.077797195324496      2.077797230917918      0.008977328147752
4
q [0.5, 0.5, 0.5] , b 2 , f 0.198241 , div 11 / 20 (generated by Phonopy) Lattice="4.137640 0.000000 0.000000 -0.000000 4.137640 0.000000 0.000000 -0.000000 4.137640"
Au      -0.012253744138312     -0.005673170046513     -0.000321356028546
Au       0.017233789797234      2.023359200342835      2.082963842893240
Au       2.141533919018794     -0.002810248177073      2.131892274006471
Au       2.087281005610800      2.044933199969380      0.012508365346301
4
q [0.5, 0.5, 0.5] , b 2 , f 0.198241 , div 12 / 20 (generated by Phonopy) Lattice="4.137640 0.000000 0.000000 -0.000000 4.137640 0.000000 0.000000 -0.000000 4.137640"
Au      -0.031406548895873     -0.018889540787441     -0.008709827076914
Au       0.024682079471781      1.974249954535620      2.087624744944347
Au       2.199031635407164     -0.013443932307437      2.180692149193842
Au       2.095836474552493      2.015286129002666      0.015693760033634
4
q [0.5, 0.5, 0.5] , b 2 , f 0.198241 , div 13 / 20 (generated by Phonopy) Lattice="4.137640 0.000000 0.000000 -0.000000 4.137640 0.000000 0.000000 -0.000000 4.137640"
Au      -0.046606300811439     -0.029378111868999     -0.015366955458731
Au       0.030593075668624      1.935276636432376      2.091323657800666
Au       2.244662081159509     -0.021882871737477      2.219419949121276
Au       2.102626133240104      1.991758079887287      0.018221703583805
4
q [0.5, 0.5, 0.5] , b 2 , f 0.198241 , div 14 / 20 (generated by Phonopy) Lattice="4.137640 0.000000 0.000000 -0.000000 4.137640 0.000000 0.000000 -0.000000 4.137640"
Au      -0.056365142264614     -0.036112188875554     -0.019641095065044
Au       0.034388168895685      1.910254225952124      2.093698506099982
Au       2.273958630319579     -0.027301004278234      2.244284726899428
Au       2.106985362574956      1.976652142000215      0.019844743268906
4
q [0.5, 0.5, 0.5] , b 2 , f 0.198241 , div 15 / 20 (generated by Phonopy) Lattice="4.137640 0.000000 0.000000 -0.000000 4.137640 0.000000 0.000000 -0.000000 4.137640"
Au      -0.059727809860116     -0.038432593430628     -0.021113863331506
Au       0.035695868985930      1.901632090974057      2.094516823144213
Au       2.284053532534525     -0.029167965366268      2.252852544836277
Au       2.108487450817218      1.971446989791093      0.020404004656176
4
q [0.5, 0.5, 0.5] , b 2 , f 0.198241 , div 16 / 20 (generated by Phonopy) Lattice="4.137640 0.000000 0.000000 -0.000000 4.137640 0.000000 0.000000 -0.000000 4.137640"
Au      -0.056365142264614     -0.036112188169164     -0.019641095438814
Au       0.034388169143243      1.910254226143774      2.093698506359523
Au       2.273958628440229     -0.027301003842400      2.244284725216667
Au       2.106985363104073      1.976652139824580      0.019844743344425
4
q [0.5, 0.5, 0.5] , b 2 , f 0.198241 , div 17 / 20 (generated by Phonopy) Lattice="4.137640 0.000000 0.000000 -0.000000 4.137640 0.000000 0.000000 -0.000000 4.137640"
Au      -0.046606300811439     -0.029378110525367     -0.015366956169683
Au       0.030593076139506      1.935276636796915      2.091323658294344
Au       2.244662077584774     -0.021882870908472      2.219419945920476
Au       2.102626134246543      1.991758075748983      0.018221703727451
4
q [0.5, 0.5, 0.5] , b 2 , f 0.198241 , div 18 / 20 (generated by Phonopy) Lattice="4.137640 0.000000 0.000000 -0.000000 4.137640 0.000000 0.000000 -0.000000 4.137640"
Au      -0.031406548895873     -0.018889538938090     -0.008709828055456
Au       0.024682080119895      1.974249955037365      2.087624745623835
Au       2.199031630486963     -0.013443931166408      2.180692144788318
Au       2.095836475937737      2.015286123306779      0.015693760231345
4
q [0.5, 0.5, 0.5] , b 2 , f 0.198241 , div 19 / 20 (generated by Phonopy) Lattice="4.137640 0.000000 0.000000 -0.000000 4.137640 0.000000 0.000000 -0.000000 4.137640"
Au      -0.012253744138312     -0.005673167872470     -0.000321357178890
Au       0.017233790559138      2.023359200932672      2.082963843692025
Au       2.141533913234750     -0.002810246835714      2.131892268827467
Au       2.087281007239253      2.044933193273464      0.012508365578725
