4
q [0.5, 0.5, 0.5] , b 9 , f 1.139292 , div 0 / 20 (generated by Phonopy) Lattice="4.137640 0.000000 0.000000 -0.000000 4.137640 0.000000 0.000000 -0.000000 4.137640"
Au       0.008977303486138      0.008977291020305      0.008977335130976
Au       0.008977294928285      2.077797221399354      2.077797191516010
Au       2.077797206504079      0.008977281769798      2.077797193130064
Au       2.077797190408274      2.077797235082965      0.008977321181256
4
q [0.5, 0.5, 0.5] , b 9 , f 1.139292 , div 1 / 20 (generated by Phonopy) Lattice="4.137640 0.000000 0.000000 -0.000000 4.137640 0.000000 0.000000 -0.000000 4.137640"
Au      -0.027132765680827      0.035984322397092     -0.021171076961354
Au       0.042111050125244      2.047648809132545      2.104804222601659
Au       2.047648794246369      0.042111036550164      2.041687124438276
Au       2.104804222113760      2.041687165732507      0.042111076038393
4
q [0.5, 0.5, 0.5] , b 9 , f 1.139292 , div 2 / 20 (generated by Phonopy) Lattice="4.137640 0.000000 0.000000 -0.000000 4.137640 0.000000 0.000000 -0.000000 4.137640"
Au      -0.059708129684084      0.060347717376060     -0.048368352425812
Au       0.072001442762159      2.020451533281871      2.129167617522964
Au       2.020451518591728      0.072001428604843      2.009111760814582
Au       2.129167617951895      2.009111800811428      0.072001468807559
4
q [0.5, 0.5, 0.5] , b 9 , f 1.139292 , div 3 / 20 (generated by Phonopy) Lattice="4.137640 0.000000 0.000000 -0.000000 4.137640 0.000000 0.000000 -0.000000 4.137640"
Au      -0.085560084929087      0.079682617106913     -0.069952232445374
Au       0.095722592949119      1.998867652702157      2.148502517435273
Au       1.998867638375793      0.095722578100916      1.983259805816375
Au       2.148502518988284      1.983259844004117      0.095722619585895
4
q [0.5, 0.5, 0.5] , b 9 , f 1.139292 , div 4 / 20 (generated by Phonopy) Lattice="4.137640 0.000000 0.000000 -0.000000 4.137640 0.000000 0.000000 -0.000000 4.137640"
Au      -0.102158061915291      0.092096386889828     -0.083809936459992
Au       0.110952509230852      1.985009948008287      2.160916287621001
Au       1.985009934177835      0.110952493650739      1.966661828920040
Au       2.160916290395308      1.966661864964048      0.110952536860243
4
q [0.5, 0.5, 0.5] , b 9 , f 1.139292 , div 5 / 20 (generated by Phonopy) Lattice="4.137640 0.000000 0.000000 -0.000000 4.137640 0.000000 0.000000 -0.000000 4.137640"
Au      -0.107877335010381      0.096373880446634     -0.088584975848413
Au       0.116200381288635      1.980234907888001      2.165193781762547
Au       1.980234894637054      0.116200365007236      1.960942555749095
Au       2.165193785735816      1.960942589524583      0.116200410214716
4
q [0.5, 0.5, 0.5] , b 9 , f 1.139292 , div 6 / 20 (generated by Phonopy) Lattice="4.137640 0.000000 0.000000 -0.000000 4.137640 0.000000 0.000000 -0.000000 4.137640"
Au      -0.102158061915291      0.092096386904939     -0.083809936485643
Au       0.110952510841378      1.985009946537934      2.160916288930280
Au       1.985009933893359      0.110952493957962      1.966661828610033
Au       2.160916293962817      1.966661860214272      0.110952541241294
4
q [0.5, 0.5, 0.5] , b 9 , f 1.139292 , div 7 / 20 (generated by Phonopy) Lattice="4.137640 0.000000 0.000000 -0.000000 4.137640 0.000000 0.000000 -0.000000 4.137640"
Au      -0.085560084929087      0.079682617135655     -0.069952232494165
Au       0.095722596012523      1.998867649905380      2.148502519925670
Au       1.998867637834687      0.095722578685288      1.983259805226707
Au       2.148502525774089      1.983259834969507      0.095722627919149
4
q [0.5, 0.5, 0.5] , b 9 , f 1.139292 , div 8 / 20 (generated by Phonopy) Lattice="4.137640 0.000000 0.000000 -0.000000 4.137640 0.000000 0.000000 -0.000000 4.137640"
Au      -0.059708129684084      0.060347717415620     -0.048368352492966
Au       0.072001446978572      2.020451529432437      2.129167620950700
Au       2.020451517846960      0.072001429409162      2.009111760002974
Au       2.129167627291754      2.009111788376353      0.072001480277298
4
q [0.5, 0.5, 0.5] , b 9 , f 1.139292 , div 9 / 20 (generated by Phonopy) Lattice="4.137640 0.000000 0.000000 -0.000000 4.137640 0.000000 0.000000 -0.000000 4.137640"
Au      -0.027132765680827      0.035984322443598     -0.021171077040299
Au       0.042111055081935      2.047648804607264      2.104804226631205
Au       2.047648793370842      0.042111037495698      2.041687123484173
Au       2.104804233093422      2.041687151114200      0.042111089521880
4
q [0.5, 0.5, 0.5] , b 9 , f 1.139292 , div 10 / 20 (generated by Phonopy) Lattice="4.137640 0.000000 0.000000 -0.000000 4.137640 0.000000 0.000000 -0.000000 4.137640"
Au       0.008977303486138      0.008977291069204      0.008977335047969
Au       0.008977300140058      2.077797216641192      2.077797195752926
Au       2.077797205583494      0.008977282763991      2.077797192126861
Au       2.077797201952976      2.077797219712368      0.008977335358633
4
q [0.5, 0.5, 0.5] , b 9 , f 1.139292 , div 11 / 20 (generated by Phonopy) Lattice="4.137640 0.000000 0.000000 -0.000000 4.137640 0.000000 0.000000 -0.000000 4.137640"
Au       0.045087372653103     -0.018029740307583      0.039125747140300
Au      -0.024156455056900      2.107945628908001      2.050790164667278
Au       2.107945617841203     -0.024156472016375      2.113907260818649
Au       2.050790170247490      2.113907289062827     -0.024156419498505
4
q [0.5, 0.5, 0.5] , b 9 , f 1.139292 , div 12 / 20 (generated by Phonopy) Lattice="4.137640 0.000000 0.000000 -0.000000 4.137640 0.000000 0.000000 -0.000000 4.137640"
Au       0.077662736656360     -0.042393135286551      0.066323022604758
Au      -0.054046847693816      2.135142904758675      2.026426769745973
Au       2.135142893495845     -0.054046864071054      2.146482624442343
Au       2.026426774409355      2.146482653983906     -0.054046812267671
4
q [0.5, 0.5, 0.5] , b 9 , f 1.139292 , div 13 / 20 (generated by Phonopy) Lattice="4.137640 0.000000 0.000000 -0.000000 4.137640 0.000000 0.000000 -0.000000 4.137640"
Au       0.103514691901362     -0.061728035017404      0.087906902624320
Au      -0.077767997880776      2.156726785338388      2.007091869833664
Au       2.156726773711780     -0.077768013567127      2.172334579440550
Au       2.007091873372966      2.172334610791217     -0.077767963046007
4
q [0.5, 0.5, 0.5] , b 9 , f 1.139292 , div 14 / 20 (generated by Phonopy) Lattice="4.137640 0.000000 0.000000 -0.000000 4.137640 0.000000 0.000000 -0.000000 4.137640"
Au       0.120112668887566     -0.074141804800320      0.101764606638938
Au      -0.092997914162508      2.170584490032259      1.994678099647936
Au       2.170584477909737     -0.092997929116950      2.188932556336885
Au       1.994678101965942      2.188932589831286     -0.092997880320355
4
q [0.5, 0.5, 0.5] , b 9 , f 1.139292 , div 15 / 20 (generated by Phonopy) Lattice="4.137640 0.000000 0.000000 -0.000000 4.137640 0.000000 0.000000 -0.000000 4.137640"
Au       0.125831941982656     -0.078419298357125      0.106539646027359
Au      -0.098245786220291      2.175359530152545      1.990400605506390
Au       2.175359517450518     -0.098245800473447      2.194651829507829
Au       1.990400606625434      2.194651865270751     -0.098245753674828
4
q [0.5, 0.5, 0.5] , b 9 , f 1.139292 , div 16 / 20 (generated by Phonopy) Lattice="4.137640 0.000000 0.000000 -0.000000 4.137640 0.000000 0.000000 -0.000000 4.137640"
Au       0.120112668887566     -0.074141804815430      0.101764606664588
Au      -0.092997915773035      2.170584491502612      1.994678098338657
Au       2.170584478194214     -0.092997929424173      2.188932556646892
Au       1.994678098398434      2.188932594581062     -0.092997884701406
4
q [0.5, 0.5, 0.5] , b 9 , f 1.139292 , div 17 / 20 (generated by Phonopy) Lattice="4.137640 0.000000 0.000000 -0.000000 4.137640 0.000000 0.000000 -0.000000 4.137640"
Au       0.103514691901362     -0.061728035046146      0.087906902673110
Au      -0.077768000944179      2.156726788135166      2.007091867343267
Au       2.156726774252886     -0.077768014151499      2.172334580030218
Au       2.007091866587161      2.172334619825827     -0.077767971379260
4
q [0.5, 0.5, 0.5] , b 9 , f 1.139292 , div 18 / 20 (generated by Phonopy) Lattice="4.137640 0.000000 0.000000 -0.000000 4.137640 0.000000 0.000000 -0.000000 4.137640"
Au       0.077662736656360     -0.042393135326111      0.066323022671912
Au      -0.054046851910229      2.135142908608109      2.026426766318236
Au       2.135142894240613     -0.054046864875373      2.146482625253951
Au       2.026426765069496      2.146482666418980     -0.054046823737410
4
q [0.5, 0.5, 0.5] , b 9 , f 1.139292 , div 19 / 20 (generated by Phonopy) Lattice="4.137640 0.000000 0.000000 -0.000000 4.137640 0.000000 0.000000 -0.000000 4.137640"
Au       0.045087372653103     -0.018029740354089      0.039125747219245
Au      -0.024156460013591      2.107945633433282      2.050790160637731
Au       2.107945618716731     -0.024156472961909      2.113907261772752
Au       2.050790159267827      2.113907303681133     -0.024156432981991
