4
q [0.5, 0.5, 0.5] , b 8 , f 0.198241 , div 0 / 20 (generated by Phonopy) Lattice="4.137640 0.000000 0.000000 -0.000000 4.137640 0.000000 0.000000 -0.000000 4.137640"
Au       0.008977303486138      0.008977291171513      0.008977335633246
Au       0.008977290759877      2.077797217615734      2.077797193673654
Au       2.077797205406304      0.008977282542553      2.077797192660973
Au       2.077797195840720      2.077797229672136      0.008977339618703
4
q [0.5, 0.5, 0.5] , b 8 , f 0.198241 , div 1 / 20 (generated by Phonopy) Lattice="4.137640 0.000000 0.000000 -0.000000 4.137640 0.000000 0.000000 -0.000000 4.137640"
Au       0.025463475226690      0.008970172343094     -0.013344519473777
Au       0.093319848656310      2.096466102495004      2.076522596561833
Au       2.081450175408338     -0.024002341512182      2.071756300463030
Au       2.079078911826634      2.067351950540168     -0.042385595186319
4
q [0.5, 0.5, 0.5] , b 8 , f 0.198241 , div 2 / 20 (generated by Phonopy) Lattice="4.137640 0.000000 0.000000 -0.000000 4.137640 0.000000 0.000000 -0.000000 4.137640"
Au       0.040335865611364      0.008963750342792     -0.033481355930643
Au       0.169406369999800      2.113307546986007      2.075372765892121
Au       2.084745567317236     -0.053753690208871      2.066306732879610
Au       2.080235164554878      2.057929127883535     -0.088720769176911
4
q [0.5, 0.5, 0.5] , b 8 , f 0.198241 , div 3 / 20 (generated by Phonopy) Lattice="4.137640 0.000000 0.000000 -0.000000 4.137640 0.000000 0.000000 -0.000000 4.137640"
Au       0.052138661447271      0.008958653800742     -0.049462039883365
Au       0.229788975955279      2.126672993160720      2.074460255101812
Au       2.087360805212609     -0.077364494247246      2.061981931555148
Au       2.081152771952326      2.050451133236535     -0.125492572686734
4
q [0.5, 0.5, 0.5] , b 8 , f 0.198241 , div 4 / 20 (generated by Phonopy) Lattice="4.137640 0.000000 0.000000 -0.000000 4.137640 0.000000 0.000000 -0.000000 4.137640"
Au       0.059716522843079      0.008955381601989     -0.059722270642677
Au       0.268556996341473      2.135254138025024      2.073874387104897
Au       2.089039891387824     -0.092523563621886      2.059205238175946
Au       2.081741912213569      2.045649964817468     -0.149101525384026
4
q [0.5, 0.5, 0.5] , b 8 , f 0.198241 , div 5 / 20 (generated by Phonopy) Lattice="4.137640 0.000000 0.000000 -0.000000 4.137640 0.000000 0.000000 -0.000000 4.137640"
Au       0.062327675927300      0.008954254052146     -0.063257705334629
Au       0.281915547210298      2.138210999331249      2.073672510742897
Au       2.089618465189170     -0.097747023002956      2.058248454836320
Au       2.081944916185055      2.043995594442899     -0.157236618485530
4
q [0.5, 0.5, 0.5] , b 8 , f 0.198241 , div 6 / 20 (generated by Phonopy) Lattice="4.137640 0.000000 0.000000 -0.000000 4.137640 0.000000 0.000000 -0.000000 4.137640"
Au       0.059716522843079      0.008955381523648     -0.059722270978748
Au       0.268557000528217      2.135254138893077      2.073874387080679
Au       2.089039891781810     -0.092523563792253      2.059205238155854
Au       2.081741912423642      2.045649963411768     -0.149101532397945
4
q [0.5, 0.5, 0.5] , b 8 , f 0.198241 , div 7 / 20 (generated by Phonopy) Lattice="4.137640 0.000000 0.000000 -0.000000 4.137640 0.000000 0.000000 -0.000000 4.137640"
Au       0.052138661447271      0.008958653651728     -0.049462040522608
Au       0.229788983918941      2.126672994811854      2.074460255055746
Au       2.087360805962015     -0.077364494571302      2.061981931516930
Au       2.081152772351909      2.050451130562736     -0.125492586028000
4
q [0.5, 0.5, 0.5] , b 8 , f 0.198241 , div 8 / 20 (generated by Phonopy) Lattice="4.137640 0.000000 0.000000 -0.000000 4.137640 0.000000 0.000000 -0.000000 4.137640"
Au       0.040335865611364      0.008963750137692     -0.033481356810487
Au       0.169406380960839      2.113307549258598      2.075372765828718
Au       2.084745568348704     -0.053753690654895      2.066306732827007
Au       2.080235165104856      2.057929124203367     -0.088720787539589
4
q [0.5, 0.5, 0.5] , b 8 , f 0.198241 , div 9 / 20 (generated by Phonopy) Lattice="4.137640 0.000000 0.000000 -0.000000 4.137640 0.000000 0.000000 -0.000000 4.137640"
Au       0.025463475226690      0.008970172101984     -0.013344520508095
Au       0.093319861541785      2.096466105166594      2.076522596487297
Au       2.081450176620902     -0.024002342036516      2.071756300401191
Au       2.079078912473172      2.067351946213871     -0.042385616772942
4
q [0.5, 0.5, 0.5] , b 8 , f 0.198241 , div 10 / 20 (generated by Phonopy) Lattice="4.137640 0.000000 0.000000 -0.000000 4.137640 0.000000 0.000000 -0.000000 4.137640"
Au       0.008977303486138      0.008977290917996      0.008977334545699
Au       0.008977304308467      2.077797220424812      2.077797193595282
Au       2.077797206681269      0.008977281991236      2.077797192595952
Au       2.077797196520530      2.077797225123198      0.008977316921185
4
q [0.5, 0.5, 0.5] , b 8 , f 0.198241 , div 11 / 20 (generated by Phonopy) Lattice="4.137640 0.000000 0.000000 -0.000000 4.137640 0.000000 0.000000 -0.000000 4.137640"
Au      -0.007508868254414      0.008984409746415      0.031299189652722
Au      -0.075365253587966      2.059128335545542      2.079071790707104
Au       2.074144236679234      0.041956906045971      2.083838084793895
Au       2.076515480534616      2.088242504255166      0.060340251726207
4
q [0.5, 0.5, 0.5] , b 8 , f 0.198241 , div 12 / 20 (generated by Phonopy) Lattice="4.137640 0.000000 0.000000 -0.000000 4.137640 0.000000 0.000000 -0.000000 4.137640"
Au      -0.022381258639088      0.008990831746717      0.051436026109588
Au      -0.151451774931456      2.042286891054539      2.080221621376815
Au       2.070848844770337      0.071708254742660      2.089287652377315
Au       2.075359227806372      2.097665326911798      0.106675425716799
4
q [0.5, 0.5, 0.5] , b 8 , f 0.198241 , div 13 / 20 (generated by Phonopy) Lattice="4.137640 0.000000 0.000000 -0.000000 4.137640 0.000000 0.000000 -0.000000 4.137640"
Au      -0.034184054474995      0.008995928288767      0.067416710062310
Au      -0.211834380886936      2.028921444879826      2.081134132167124
Au       2.068233606874963      0.095319058781035      2.093612453701776
Au       2.074441620408924      2.105143321558799      0.143447229226622
4
q [0.5, 0.5, 0.5] , b 8 , f 0.198241 , div 14 / 20 (generated by Phonopy) Lattice="4.137640 0.000000 0.000000 -0.000000 4.137640 0.000000 0.000000 -0.000000 4.137640"
Au      -0.041761915870803      0.008999200487520      0.077676940821623
Au      -0.250602401273129      2.020340300015522      2.081720000164039
Au       2.066554520699749      0.110478128155676      2.096389147080979
Au       2.073852480147681      2.109944489977866      0.167056181923914
4
q [0.5, 0.5, 0.5] , b 8 , f 0.198241 , div 15 / 20 (generated by Phonopy) Lattice="4.137640 0.000000 0.000000 -0.000000 4.137640 0.000000 0.000000 -0.000000 4.137640"
Au      -0.044373068955025      0.009000328037363      0.081212375513574
Au      -0.263960952141954      2.017383438709297      2.081921876526040
Au       2.065975946898403      0.115701587536745      2.097345930420605
Au       2.073649476176195      2.111598860352434      0.175191275025418
4
q [0.5, 0.5, 0.5] , b 8 , f 0.198241 , div 16 / 20 (generated by Phonopy) Lattice="4.137640 0.000000 0.000000 -0.000000 4.137640 0.000000 0.000000 -0.000000 4.137640"
Au      -0.041761915870803      0.008999200565861      0.077676941157694
Au      -0.250602405459874      2.020340299147469      2.081720000188258
Au       2.066554520305763      0.110478128326042      2.096389147101071
Au       2.073852479937608      2.109944491383565      0.167056188937833
4
q [0.5, 0.5, 0.5] , b 8 , f 0.198241 , div 17 / 20 (generated by Phonopy) Lattice="4.137640 0.000000 0.000000 -0.000000 4.137640 0.000000 0.000000 -0.000000 4.137640"
Au      -0.034184054474995      0.008995928437781      0.067416710701554
Au      -0.211834388850597      2.028921443228692      2.081134132213190
Au       2.068233606125558      0.095319059105091      2.093612453739995
Au       2.074441620009341      2.105143324232598      0.143447242567889
4
q [0.5, 0.5, 0.5] , b 8 , f 0.198241 , div 18 / 20 (generated by Phonopy) Lattice="4.137640 0.000000 0.000000 -0.000000 4.137640 0.000000 0.000000 -0.000000 4.137640"
Au      -0.022381258639088      0.008990831951817      0.051436026989432
Au      -0.151451785892496      2.042286888781948      2.080221621440219
Au       2.070848843738868      0.071708255188685      2.089287652429918
Au       2.075359227256394      2.097665330591967      0.106675444079477
4
q [0.5, 0.5, 0.5] , b 8 , f 0.198241 , div 19 / 20 (generated by Phonopy) Lattice="4.137640 0.000000 0.000000 -0.000000 4.137640 0.000000 0.000000 -0.000000 4.137640"
Au      -0.007508868254414      0.008984409987524      0.031299190687041
Au      -0.075365266473441      2.059128332873951      2.079071790781640
Au       2.074144235466671      0.041956906570305      2.083838084855734
Au       2.076515479888078      2.088242508581463      0.060340273312830
