(written by ASE)

256 atoms
1 atom types

0.0      16.550558929044364  xlo xhi
0.0      16.550559012283149  ylo yhi
0.0      16.550559074811822  zlo zhi

Masses

1 196.9666 # Au


Atoms # atomic

     1   1     0.20897730348613855   0.0089772910447548527   0.0089773350894720404
     2   1      4.1466170357472283   0.0089772910447548527   0.0089773350894720404
     3   1      8.2842567680083192   0.0089772910447548527   0.0089773350894720404
     4   1      12.421896500269412   0.0089772910447548527   0.0089773350894720404
     5   1   0.0089772893702402008      4.1466170441155423   0.0089773350894720404
     6   1      4.1466170216313314      4.1466170441155423   0.0089773350894720404
     7   1      8.2842567538924214      4.1466170441155423   0.0089773350894720404
     8   1      12.421896486153514      4.1466170441155423   0.0089773350894720404
     9   1   0.0089772752543426006      8.2842567971863321   0.0089773350894720404
    10   1      4.1466170075154336      8.2842567971863321   0.0089773350894720404
    11   1      8.2842567397765237      8.2842567971863321   0.0089773350894720404
    12   1      12.421896472037616      8.2842567971863321   0.0089773350894720404
    13   1   0.0089772611384450005      12.421896550257117   0.0089773350894720404
    14   1      4.1466169933995358      12.421896550257117   0.0089773350894720404
    15   1      8.2842567256606259      12.421896550257117   0.0089773350894720404
    16   1      12.421896457921717      12.421896550257117   0.0089773350894720404
    17   1   0.0089773079399238006   0.0089772769575247515       4.146617103792428
    18   1      4.1466170402010141   0.0089772769575247515       4.146617103792428
    19   1      8.2842567724621077   0.0089772769575247515       4.146617103792428
    20   1      12.421896504723199   0.0089772769575247515       4.146617103792428
    21   1   0.0089772938240262005      4.1466170300283123       4.146617103792428
    22   1      4.1466170260851172      4.1466170300283123       4.146617103792428
    23   1      8.2842567583462099      4.1466170300283123       4.146617103792428
    24   1      12.421896490607301      4.1466170300283123       4.146617103792428
    25   1   0.0089772797081286004      8.2842567830990994       4.146617103792428
    26   1      4.1466170119692194      8.2842567830990994       4.146617103792428
    27   1      8.2842567442303121      8.2842567830990994       4.146617103792428
    28   1      12.421896476491403      8.2842567830990994       4.146617103792428
    29   1   0.0089772655922310002      12.421896536169884       4.146617103792428
    30   1      4.1466169978533216      12.421896536169884       4.146617103792428
    31   1      8.2842567301144143      12.421896536169884       4.146617103792428
    32   1      12.421896462375505      12.421896536169884       4.146617103792428
    33   1   0.0089773123937098003   0.0089772628702946521      8.2842568724953871
    34   1      4.1466170446547981   0.0089772628702946521      8.2842568724953871
    35   1      8.2842567769158908   0.0089772628702946521      8.2842568724953871
    36   1      12.421896509176982   0.0089772628702946521      8.2842568724953871
    37   1   0.0089772982778122002      4.1466170159410822      8.2842568724953871
    38   1       4.146617030538903      4.1466170159410822      8.2842568724953871
    39   1       8.284256762799993      4.1466170159410822      8.2842568724953871
    40   1      12.421896495061084      4.1466170159410822      8.2842568724953871
    41   1   0.0089772841619146001       8.284256769011872      8.2842568724953871
    42   1      4.1466170164230052       8.284256769011872      8.2842568724953871
    43   1      8.2842567486840952       8.284256769011872      8.2842568724953871
    44   1      12.421896480945186       8.284256769011872      8.2842568724953871
    45   1       0.008977270046017      12.421896522082658      8.2842568724953871
    46   1      4.1466170023071074      12.421896522082658      8.2842568724953871
    47   1      8.2842567345681957      12.421896522082658      8.2842568724953871
    48   1      12.421896466829287      12.421896522082658      8.2842568724953871
    49   1      0.0089773168474958   0.0089772487830645526      12.421896641198343
    50   1      4.1466170491085865   0.0089772487830645526      12.421896641198343
    51   1      8.2842567813696775   0.0089772487830645526      12.421896641198343
    52   1       12.42189651363077   0.0089772487830645526      12.421896641198343
    53   1   0.0089773027315981999      4.1466170018538522      12.421896641198343
    54   1      4.1466170349926896      4.1466170018538522      12.421896641198343
    55   1      8.2842567672537797      4.1466170018538522      12.421896641198343
    56   1      12.421896499514872      4.1466170018538522      12.421896641198343
    57   1   0.0089772886157005998      8.2842567549246393      12.421896641198343
    58   1      4.1466170208767918      8.2842567549246393      12.421896641198343
    59   1      8.2842567531378819      8.2842567549246393      12.421896641198343
    60   1      12.421896485398975      8.2842567549246393      12.421896641198343
    61   1   0.0089772744998029997      12.421896507995426      12.421896641198343
    62   1      4.1466170067608941      12.421896507995426      12.421896641198343
    63   1      8.2842567390219823      12.421896507995426      12.421896641198343
    64   1      12.421896471283075      12.421896507995426      12.421896641198343
    65   1   0.0089772975341720004      2.0777972190202725      2.0777971936344692
    66   1      4.1466170297952623      2.0777972190202725      2.0777971936344692
    67   1      8.2842567620563532      2.0777972190202725      2.0777971936344692
    68   1      12.421896494317444      2.0777972190202725      2.0777971936344692
    69   1   0.0089772834182744003      6.2154369720910596      2.0777971936344692
    70   1      4.1466170156793645      6.2154369720910596      2.0777971936344692
    71   1      8.2842567479404554      6.2154369720910596      2.0777971936344692
    72   1      12.421896480201546      6.2154369720910596      2.0777971936344692
    73   1   0.0089772693023768002      10.353076725161847      2.0777971936344692
    74   1      4.1466170015634676      10.353076725161847      2.0777971936344692
    75   1      8.2842567338245576      10.353076725161847      2.0777971936344692
    76   1      12.421896466085649      10.353076725161847      2.0777971936344692
    77   1   0.0089772551864792001      14.490716478232633      2.0777971936344692
    78   1      4.1466169874475698      14.490716478232633      2.0777971936344692
    79   1      8.2842567197086598      14.490716478232633      2.0777971936344692
    80   1      12.421896451969751      14.490716478232633      2.0777971936344692
    81   1   0.0089773019879580002       2.077797204933042      6.2154369623374244
    82   1      4.1466170342490489       2.077797204933042      6.2154369623374244
    83   1      8.2842567665101399       2.077797204933042      6.2154369623374244
    84   1      12.421896498771231       2.077797204933042      6.2154369623374244
    85   1      0.0089772878720604      6.2154369580038296      6.2154369623374244
    86   1      4.1466170201331511      6.2154369580038296      6.2154369623374244
    87   1      8.2842567523942421      6.2154369580038296      6.2154369623374244
    88   1      12.421896484655333      6.2154369580038296      6.2154369623374244
    89   1   0.0089772737561627999      10.353076711074616      6.2154369623374244
    90   1      4.1466170060172542      10.353076711074616      6.2154369623374244
    91   1      8.2842567382783443      10.353076711074616      6.2154369623374244
    92   1      12.421896470539435      10.353076711074616      6.2154369623374244
    93   1   0.0089772596402651998      14.490716464145402      6.2154369623374244
    94   1      4.1466169919013565      14.490716464145402      6.2154369623374244
    95   1      8.2842567241624465      14.490716464145402      6.2154369623374244
    96   1      12.421896456423537      14.490716464145402      6.2154369623374244
    97   1   0.0089773064417439999      2.0777971908458119       10.35307673104038
    98   1      4.1466170387028347      2.0777971908458119       10.35307673104038
    99   1      8.2842567709639248      2.0777971908458119       10.35307673104038
   100   1      12.421896503225016      2.0777971908458119       10.35307673104038
   101   1   0.0089772923258463998      6.2154369439165995       10.35307673104038
   102   1       4.146617024586936      6.2154369439165995       10.35307673104038
   103   1       8.284256756848027      6.2154369439165995       10.35307673104038
   104   1      12.421896489109118      6.2154369439165995       10.35307673104038
   105   1   0.0089772782099487997      10.353076696987388       10.35307673104038
   106   1        4.14661701047104      10.353076696987388       10.35307673104038
   107   1      8.2842567427321292      10.353076696987388       10.35307673104038
   108   1       12.42189647499322      10.353076696987388       10.35307673104038
   109   1   0.0089772640940511995      14.490716450058173       10.35307673104038
   110   1      4.1466169963551422      14.490716450058173       10.35307673104038
   111   1      8.2842567286162314      14.490716450058173       10.35307673104038
   112   1      12.421896460877322      14.490716450058173       10.35307673104038
   113   1   0.0089773108955299996      2.0777971767585819      14.490716499743336
   114   1      4.1466170431566205      2.0777971767585819      14.490716499743336
   115   1      8.2842567754177114      2.0777971767585819      14.490716499743336
   116   1      12.421896507678802      2.0777971767585819      14.490716499743336
   117   1   0.0089772967796323995      6.2154369298293695      14.490716499743336
   118   1      4.1466170290407218      6.2154369298293695      14.490716499743336
   119   1      8.2842567613018137      6.2154369298293695      14.490716499743336
   120   1      12.421896493562905      6.2154369298293695      14.490716499743336
   121   1   0.0089772826637347994      10.353076682900156      14.490716499743336
   122   1      4.1466170149248258      10.353076682900156      14.490716499743336
   123   1      8.2842567471859159      10.353076682900156      14.490716499743336
   124   1      12.421896479447007      10.353076682900156      14.490716499743336
   125   1   0.0089772685478371993       14.49071643597094      14.490716499743336
   126   1       4.146617000808928       14.49071643597094      14.490716499743336
   127   1      8.2842567330700181       14.49071643597094      14.490716499743336
   128   1      12.421896465331109       14.49071643597094      14.490716499743336
   129   1      2.0777972060437868   0.0089772822668945321      2.0777971926284629
   130   1      6.2154369383048778   0.0089772822668945321      2.0777971926284629
   131   1      10.353076670565967   0.0089772822668945321      2.0777971926284629
   132   1      14.490716402827058   0.0089772822668945321      2.0777971926284629
   133   1       2.077797191927889      4.1466170353376812      2.0777971926284629
   134   1      6.2154369241889809      4.1466170353376812      2.0777971926284629
   135   1      10.353076656450069      4.1466170353376812      2.0777971926284629
   136   1       14.49071638871116      4.1466170353376812      2.0777971926284629
   137   1      2.0777971778119899      8.2842567884084684      2.0777971926284629
   138   1      6.2154369100730831      8.2842567884084684      2.0777971926284629
   139   1      10.353076642334171      8.2842567884084684      2.0777971926284629
   140   1      14.490716374595262      8.2842567884084684      2.0777971926284629
   141   1      2.0777971636960939      12.421896541479256      2.0777971926284629
   142   1      6.2154368959571853      12.421896541479256      2.0777971926284629
   143   1      10.353076628218274      12.421896541479256      2.0777971926284629
   144   1      14.490716360479365      12.421896541479256      2.0777971926284629
   145   1      2.0777972104975726    0.008977268179664431      6.2154369613314193
   146   1      6.2154369427586644    0.008977268179664431      6.2154369613314193
   147   1      10.353076675019754    0.008977268179664431      6.2154369613314193
   148   1      14.490716407280845    0.008977268179664431      6.2154369613314193
   149   1      2.0777971963816748      4.1466170212504512      6.2154369613314193
   150   1      6.2154369286427675      4.1466170212504512      6.2154369613314193
   151   1      10.353076660903856      4.1466170212504512      6.2154369613314193
   152   1      14.490716393164947      4.1466170212504512      6.2154369613314193
   153   1      2.0777971822657757      8.2842567743212374      6.2154369613314193
   154   1      6.2154369145268697      8.2842567743212374      6.2154369613314193
   155   1      10.353076646787958      8.2842567743212374      6.2154369613314193
   156   1      14.490716379049049      8.2842567743212374      6.2154369613314193
   157   1      2.0777971681498797      12.421896527392027      6.2154369613314193
   158   1       6.215436900410972      12.421896527392027      6.2154369613314193
   159   1      10.353076632672058      12.421896527392027      6.2154369613314193
   160   1      14.490716364933149      12.421896527392027      6.2154369613314193
   161   1      2.0777972149513588   0.0089772540924343315      10.353076730034374
   162   1      6.2154369472124484   0.0089772540924343315      10.353076730034374
   163   1      10.353076679473538   0.0089772540924343315      10.353076730034374
   164   1      14.490716411734629   0.0089772540924343315      10.353076730034374
   165   1       2.077797200835461      4.1466170071632211      10.353076730034374
   166   1      6.2154369330965533      4.1466170071632211      10.353076730034374
   167   1      10.353076665357641      4.1466170071632211      10.353076730034374
   168   1      14.490716397618732      4.1466170071632211      10.353076730034374
   169   1      2.0777971867195619      8.2842567602340083      10.353076730034374
   170   1      6.2154369189806555      8.2842567602340083      10.353076730034374
   171   1      10.353076651241743      8.2842567602340083      10.353076730034374
   172   1      14.490716383502834      8.2842567602340083      10.353076730034374
   173   1      2.0777971726036659      12.421896513304798      10.353076730034374
   174   1      6.2154369048647578      12.421896513304798      10.353076730034374
   175   1      10.353076637125843      12.421896513304798      10.353076730034374
   176   1      14.490716369386934      12.421896513304798      10.353076730034374
   177   1      2.0777972194051446   0.0089772400052042321       14.49071649873733
   178   1      6.2154369516662342   0.0089772400052042321       14.49071649873733
   179   1      10.353076683927325   0.0089772400052042321       14.49071649873733
   180   1      14.490716416188416   0.0089772400052042321       14.49071649873733
   181   1      2.0777972052892455      4.1466169930759911       14.49071649873733
   182   1      6.2154369375503391      4.1466169930759911       14.49071649873733
   183   1      10.353076669811427      4.1466169930759911       14.49071649873733
   184   1      14.490716402072518      4.1466169930759911       14.49071649873733
   185   1      2.0777971911733477      8.2842567461467755       14.49071649873733
   186   1      6.2154369234344413      8.2842567461467755       14.49071649873733
   187   1       10.35307665569553      8.2842567461467755       14.49071649873733
   188   1      14.490716387956621      8.2842567461467755       14.49071649873733
   189   1      2.0777971770574517      12.421896499217565       14.49071649873733
   190   1      6.2154369093185435      12.421896499217565       14.49071649873733
   191   1       10.35307664157963      12.421896499217565       14.49071649873733
   192   1      14.490716373840721      12.421896499217565       14.49071649873733
   193   1       2.077797196180625      2.0777972273976668   0.0089773282699449237
   194   1      6.2154369284417177      2.0777972273976668   0.0089773282699449237
   195   1      10.353076660702808      2.0777972273976668   0.0089773282699449237
   196   1      14.490716392963899      2.0777972273976668   0.0089773282699449237
   197   1      2.0777971820647276      6.2154369804684535   0.0089773282699449237
   198   1      6.2154369143258199      6.2154369804684535   0.0089773282699449237
   199   1       10.35307664658691      6.2154369804684535   0.0089773282699449237
   200   1      14.490716378848001      6.2154369804684535   0.0089773282699449237
   201   1      2.0777971679488298      10.353076733539242   0.0089773282699449237
   202   1       6.215436900209923      10.353076733539242   0.0089773282699449237
   203   1      10.353076632471012      10.353076733539242   0.0089773282699449237
   204   1      14.490716364732103      10.353076733539242   0.0089773282699449237
   205   1      2.0777971538329325      14.490716486610031   0.0089773282699449237
   206   1      6.2154368860940252      14.490716486610031   0.0089773282699449237
   207   1      10.353076618355114      14.490716486610031   0.0089773282699449237
   208   1      14.490716350616205      14.490716486610031   0.0089773282699449237
   209   1      2.0777972006344108      2.0777972133104368      4.1466170969729008
   210   1      6.2154369328955026      2.0777972133104368      4.1466170969729008
   211   1      10.353076665156596      2.0777972133104368      4.1466170969729008
   212   1      14.490716397417687      2.0777972133104368      4.1466170969729008
   213   1      2.0777971865185134      6.2154369663812234      4.1466170969729008
   214   1      6.2154369187796048      6.2154369663812234      4.1466170969729008
   215   1      10.353076651040698      6.2154369663812234      4.1466170969729008
   216   1      14.490716383301789      6.2154369663812234      4.1466170969729008
   217   1      2.0777971724026156      10.353076719452011      4.1466170969729008
   218   1      6.2154369046637079      10.353076719452011      4.1466170969729008
   219   1      10.353076636924801      10.353076719452011      4.1466170969729008
   220   1      14.490716369185892      10.353076719452011      4.1466170969729008
   221   1      2.0777971582867183      14.490716472522799      4.1466170969729008
   222   1      6.2154368905478101      14.490716472522799      4.1466170969729008
   223   1      10.353076622808903      14.490716472522799      4.1466170969729008
   224   1      14.490716355069994      14.490716472522799      4.1466170969729008
   225   1       2.077797205088197      2.0777971992232067      8.2842568656758555
   226   1      6.2154369373492884      2.0777971992232067      8.2842568656758555
   227   1      10.353076669610379      2.0777971992232067      8.2842568656758555
   228   1       14.49071640187147      2.0777971992232067      8.2842568656758555
   229   1      2.0777971909722996      6.2154369522939916      8.2842568656758555
   230   1      6.2154369232333906      6.2154369522939916      8.2842568656758555
   231   1      10.353076655494482      6.2154369522939916      8.2842568656758555
   232   1      14.490716387755572      6.2154369522939916      8.2842568656758555
   233   1      2.0777971768564019      10.353076705364783      8.2842568656758555
   234   1      6.2154369091174937      10.353076705364783      8.2842568656758555
   235   1      10.353076641378584      10.353076705364783      8.2842568656758555
   236   1      14.490716373639675      10.353076705364783      8.2842568656758555
   237   1      2.0777971627405045      14.490716458435571      8.2842568656758555
   238   1      6.2154368950015959      14.490716458435571      8.2842568656758555
   239   1      10.353076627262686      14.490716458435571      8.2842568656758555
   240   1      14.490716359523777      14.490716458435571      8.2842568656758555
   241   1      2.0777972095419828      2.0777971851359767      12.421896634378811
   242   1      6.2154369418030759      2.0777971851359767      12.421896634378811
   243   1      10.353076674064166      2.0777971851359767      12.421896634378811
   244   1      14.490716406325257      2.0777971851359767      12.421896634378811
   245   1      2.0777971954260854      6.2154369382067634      12.421896634378811
   246   1      6.2154369276871773      6.2154369382067634      12.421896634378811
   247   1      10.353076659948268      6.2154369382067634      12.421896634378811
   248   1      14.490716392209359      6.2154369382067634      12.421896634378811
   249   1      2.0777971813101876       10.35307669127755      12.421896634378811
   250   1      6.2154369135712813       10.35307669127755      12.421896634378811
   251   1       10.35307664583237       10.35307669127755      12.421896634378811
   252   1      14.490716378093461       10.35307669127755      12.421896634378811
   253   1      2.0777971671942903      14.490716444348338      12.421896634378811
   254   1      6.2154368994553835      14.490716444348338      12.421896634378811
   255   1      10.353076631716473      14.490716444348338      12.421896634378811
   256   1      14.490716363977564      14.490716444348338      12.421896634378811
