ITEM: TIMESTEP
0
ITEM: NUMBER OF ATOMS
256
ITEM: BOX BOUNDS pp pp pp
0.0000000000000000e+00 1.6550558929044364e+01
0.0000000000000000e+00 1.6550559012283149e+01
0.0000000000000000e+00 1.6550559074811822e+01
ITEM: ATOMS id type x y z fx fy fz
1 1 0.208977 0.00897729 0.00897734 -1.28888 4.73266e-07 -2.30664e-07
65 1 0.0089773 2.0778 2.0778 -0.0685107 -0.0339662 -0.0339656
129 1 2.0778 0.00897728 2.0778 0.182225 3.08946e-07 0.243199
193 1 2.0778 2.0778 0.00897733 0.182225 0.243198 -1.09089e-07
2 1 4.14662 0.00897729 0.00897734 0.0695323 2.53686e-07 -1.20549e-07
66 1 4.14662 2.0778 2.0778 0.00791969 0.0183411 0.0183416
130 1 6.21544 0.00897728 2.0778 -0.0204756 3.50257e-07 0.00789351
194 1 6.21544 2.0778 0.00897733 -0.0204755 0.00789295 -1.25822e-07
3 1 8.28426 0.00897729 0.00897734 0.0920727 3.12083e-07 -1.48936e-07
67 1 8.28426 2.0778 2.0778 7.03602e-05 -4.16594e-07 9.78903e-08
131 1 10.3531 0.00897728 2.0778 0.0188716 3.5199e-07 -0.00608621
195 1 10.3531 2.0778 0.00897733 0.0188716 -0.00608674 -1.25875e-07
4 1 12.4219 0.00897729 0.00897734 -0.0401431 2.52914e-07 -1.18349e-07
68 1 12.4219 2.0778 2.0778 0.00287288 -0.0146557 -0.0146552
132 1 14.4907 0.00897728 2.0778 0.135385 4.62343e-07 -0.168074
196 1 14.4907 2.0778 0.00897733 0.135385 -0.168075 -1.68616e-07
5 1 0.00897729 4.14662 0.00897734 0.00446269 0.00428415 -1.50234e-07
69 1 0.00897728 6.21544 2.0778 0.000163212 -0.0043049 -0.00173909
133 1 2.0778 4.14662 2.0778 0.00707519 -0.00293505 0.00221912
197 1 2.0778 6.21544 0.00897733 -0.00143172 -0.0168748 -1.30406e-07
6 1 4.14662 4.14662 0.00897734 0.000969457 0.0773432 -1.5e-07
70 1 4.14662 6.21544 2.0778 1.14957e-07 5.93986e-05 9.86744e-08
134 1 6.21544 4.14662 2.0778 -1.55888e-05 -1.55945e-05 6.76515e-07
198 1 6.21544 6.21544 0.00897733 -1.93472e-07 -4.19805e-07 -1.3016e-07
7 1 8.28426 4.14662 0.00897734 2.25068e-07 3.12692e-07 -1.49541e-07
71 1 8.28426 6.21544 2.0778 2.15708e-07 -3.76063e-07 1.38421e-07
135 1 10.3531 4.14662 2.0778 -2.07832e-07 3.57572e-07 1.4128e-07
199 1 10.3531 6.21544 0.00897733 -1.93472e-07 -4.19805e-07 -1.3016e-07
8 1 12.4219 4.14662 0.00897734 -0.0120145 0.0151509 -1.48662e-07
72 1 12.4219 6.21544 2.0778 2.15708e-07 -3.76063e-07 1.38421e-07
136 1 14.4907 4.14662 2.0778 0.0128291 -0.0164509 0.00162649
200 1 14.4907 6.21544 0.00897733 0.00183886 -0.0177692 -1.30382e-07
9 1 0.00897728 8.28426 0.00897734 0.000108027 3.14012e-07 -1.49568e-07
73 1 0.00897727 10.3531 2.0778 0.000163212 0.00430417 -0.0017391
137 1 2.0778 8.28426 2.0778 -2.07821e-07 3.57572e-07 1.4116e-07
201 1 2.0778 10.3531 0.00897733 -0.00143172 0.0168741 -1.30406e-07
10 1 4.14662 8.28426 0.00897734 2.25188e-07 3.12692e-07 -1.49541e-07
74 1 4.14662 10.3531 2.0778 1.15077e-07 -6.01509e-05 9.86743e-08
138 1 6.21544 8.28426 2.0778 -2.07713e-07 3.57572e-07 1.4128e-07
202 1 6.21544 10.3531 0.00897733 -1.93353e-07 -4.19805e-07 -1.3016e-07
11 1 8.28426 8.28426 0.00897734 2.25188e-07 3.12692e-07 -1.49541e-07
75 1 8.28426 10.3531 2.0778 2.15828e-07 -3.76063e-07 1.38421e-07
139 1 10.3531 8.28426 2.0778 -2.07713e-07 3.57572e-07 1.4128e-07
203 1 10.3531 10.3531 0.00897733 -1.93352e-07 -4.19805e-07 -1.3016e-07
12 1 12.4219 8.28426 0.00897734 2.25188e-07 3.12692e-07 -1.49541e-07
76 1 12.4219 10.3531 2.0778 2.15828e-07 -3.76063e-07 1.38421e-07
140 1 14.4907 8.28426 2.0778 -2.07713e-07 3.57572e-07 1.4128e-07
204 1 14.4907 10.3531 0.00897733 0.00183887 0.0177684 -1.30382e-07
13 1 0.00897726 12.4219 0.00897734 0.00446271 -0.00428353 -1.45659e-07
77 1 0.00897726 14.4907 2.0778 -0.0685106 0.0339654 -0.0339657
141 1 2.0778 12.4219 2.0778 0.0070752 0.0029357 0.00221912
205 1 2.0778 14.4907 0.00897733 0.182225 -0.243199 -1.13693e-07
14 1 4.14662 12.4219 0.00897734 0.000969466 -0.0773426 -1.50005e-07
78 1 4.14662 14.4907 2.0778 0.00791971 -0.0183418 0.0183416
142 1 6.21544 12.4219 2.0778 -1.55773e-05 1.63096e-05 6.76516e-07
206 1 6.21544 14.4907 0.00897733 -0.0204755 -0.00789378 -1.25812e-07
15 1 8.28426 12.4219 0.00897734 2.36619e-07 3.12692e-07 -1.49541e-07
79 1 8.28426 14.4907 2.0778 7.04233e-05 -3.35533e-07 9.78902e-08
143 1 10.3531 12.4219 2.0778 -1.96281e-07 3.57572e-07 1.4128e-07
207 1 10.3531 14.4907 0.00897733 0.0188717 0.00608593 -1.25875e-07
16 1 12.4219 12.4219 0.00897734 -0.0120145 -0.0151504 -1.48662e-07
80 1 12.4219 14.4907 2.0778 0.00287292 0.014655 -0.0146552
144 1 14.4907 12.4219 2.0778 0.0128291 0.0164516 0.00162651
208 1 14.4907 14.4907 0.00897733 0.135385 0.168074 -1.47929e-07
17 1 0.00897731 0.00897728 4.14662 0.00446264 3.61396e-07 0.00428367
81 1 0.0089773 2.0778 6.21544 0.000163197 -0.0017396 -0.00430439
145 1 2.0778 0.00897727 6.21544 -0.00143179 3.69867e-07 -0.0168743
209 1 2.0778 2.0778 4.14662 0.00707518 0.00221862 -0.00293546
18 1 4.14662 0.00897728 4.14662 0.000969388 3.65201e-07 0.0773428
82 1 4.14662 2.0778 6.21544 9.99198e-08 -4.04402e-07 5.99131e-05
146 1 6.21544 0.00897727 6.21544 -2.62818e-07 3.6898e-07 1.4128e-07
210 1 6.21544 2.0778 4.14662 -1.56021e-05 1.66705e-07 -1.60822e-05
19 1 8.28426 0.00897728 4.14662 1.57478e-07 3.63966e-07 -1.49541e-07
83 1 8.28426 2.0778 6.21544 2.0067e-07 -3.64655e-07 1.38421e-07
147 1 10.3531 0.00897727 6.21544 -2.62818e-07 3.6898e-07 1.4128e-07
211 1 10.3531 2.0778 4.14662 -2.21114e-07 -3.68531e-07 -1.30159e-07
20 1 12.4219 0.00897728 4.14662 -0.0120145 3.61913e-07 0.0151505
84 1 12.4219 2.0778 6.21544 2.0067e-07 -3.64655e-07 1.38421e-07
148 1 14.4907 0.00897727 6.21544 0.00183879 3.69787e-07 -0.0177687
212 1 14.4907 2.0778 4.14662 0.0128291 0.00162599 -0.0164513
21 1 0.00897729 4.14662 4.14662 -0.000486897 -0.00190096 -0.00190147
85 1 0.00897729 6.21544 6.21544 2.12101e-07 -3.64655e-07 1.38421e-07
149 1 2.0778 4.14662 6.21544 -2.10785e-07 3.44635e-07 2.06846e-07
213 1 2.0778 6.21544 4.14662 -2.09029e-07 -3.02966e-07 -1.54505e-07
22 1 4.14662 4.14662 4.14662 1.19482e-06 -1.11982e-05 -1.17117e-05
86 1 4.14662 6.21544 6.21544 2.12101e-07 -3.64655e-07 1.38421e-07
150 1 6.21544 4.14662 6.21544 -2.11439e-07 3.6898e-07 1.4128e-07
214 1 6.21544 6.21544 4.14662 -2.09683e-07 -3.68531e-07 -1.30159e-07
23 1 8.28426 4.14662 4.14662 2.08857e-07 3.63966e-07 -1.49541e-07
87 1 8.28426 6.21544 6.21544 2.12101e-07 -3.64655e-07 1.38421e-07
151 1 10.3531 4.14662 6.21544 -2.11439e-07 3.6898e-07 1.4128e-07
215 1 10.3531 6.21544 4.14662 -2.09683e-07 -3.68531e-07 -1.30159e-07
24 1 12.4219 4.14662 4.14662 2.08857e-07 3.63966e-07 -1.49541e-07
88 1 12.4219 6.21544 6.21544 2.12101e-07 -3.64655e-07 1.38421e-07
152 1 14.4907 4.14662 6.21544 -2.11439e-07 3.6898e-07 1.4128e-07
216 1 14.4907 6.21544 4.14662 -2.09683e-07 -3.68531e-07 -1.30159e-07
25 1 0.00897728 8.28426 4.14662 2.08977e-07 3.63966e-07 -1.49541e-07
89 1 0.00897727 10.3531 6.21544 2.12221e-07 -3.64655e-07 1.38421e-07
153 1 2.0778 8.28426 6.21544 -2.11319e-07 3.6898e-07 1.4128e-07
217 1 2.0778 10.3531 4.14662 -2.08909e-07 -4.34097e-07 -1.54505e-07
26 1 4.14662 8.28426 4.14662 2.08977e-07 3.63966e-07 -1.49541e-07
90 1 4.14662 10.3531 6.21544 2.12221e-07 -3.64655e-07 1.38421e-07
154 1 6.21544 8.28426 6.21544 -2.11319e-07 3.6898e-07 1.4128e-07
218 1 6.21544 10.3531 4.14662 -2.09563e-07 -3.68531e-07 -1.30159e-07
27 1 8.28426 8.28426 4.14662 2.08977e-07 3.63966e-07 -1.49541e-07
91 1 8.28426 10.3531 6.21544 2.12221e-07 -3.64655e-07 1.38421e-07
155 1 10.3531 8.28426 6.21544 -2.11319e-07 3.6898e-07 1.4128e-07
219 1 10.3531 10.3531 4.14662 -2.09563e-07 -3.68531e-07 -1.30159e-07
28 1 12.4219 8.28426 4.14662 2.08977e-07 3.63966e-07 -1.49541e-07
92 1 12.4219 10.3531 6.21544 2.12221e-07 -3.64655e-07 1.38421e-07
156 1 14.4907 8.28426 6.21544 -2.11319e-07 3.6898e-07 1.4128e-07
220 1 14.4907 10.3531 4.14662 -2.09563e-07 -3.68531e-07 -1.30159e-07
29 1 0.00897727 12.4219 4.14662 -0.000486885 0.00190169 -0.00190148
93 1 0.00897726 14.4907 6.21544 0.00016326 0.00173887 -0.00430441
157 1 2.0778 12.4219 6.21544 -1.99234e-07 3.93326e-07 2.06846e-07
221 1 2.0778 14.4907 4.14662 0.00707524 -0.00221934 -0.00293551
30 1 4.14662 12.4219 4.14662 1.20637e-06 1.19261e-05 -1.17117e-05
94 1 4.14662 14.4907 6.21544 1.62849e-07 -3.24909e-07 5.99133e-05
158 1 6.21544 12.4219 6.21544 -1.99888e-07 3.6898e-07 1.4128e-07
222 1 6.21544 14.4907 4.14662 -1.55392e-05 -9.03766e-07 -1.60822e-05
31 1 8.28426 12.4219 4.14662 2.20408e-07 3.63966e-07 -1.49541e-07
95 1 8.28426 14.4907 6.21544 2.636e-07 -3.64655e-07 1.38421e-07
159 1 10.3531 12.4219 6.21544 -1.99888e-07 3.6898e-07 1.4128e-07
223 1 10.3531 14.4907 4.14662 -1.58185e-07 -3.68531e-07 -1.30159e-07
32 1 12.4219 12.4219 4.14662 2.20408e-07 3.63966e-07 -1.49541e-07
96 1 12.4219 14.4907 6.21544 2.636e-07 -3.64655e-07 1.38421e-07
160 1 14.4907 12.4219 6.21544 -1.99888e-07 3.6898e-07 1.4128e-07
224 1 14.4907 14.4907 4.14662 0.0128291 -0.00162674 -0.0164514
33 1 0.00897731 0.00897726 8.28426 0.000107959 3.64152e-07 -1.50095e-07
97 1 0.00897731 2.0778 10.3531 0.000163197 -0.00173959 0.00430466
161 1 2.0778 0.00897725 10.3531 -0.00143179 3.70019e-07 0.0168746
225 1 2.0778 2.0778 8.28426 -2.2126e-07 -3.68531e-07 -1.30159e-07
34 1 4.14662 0.00897726 8.28426 1.57441e-07 3.64086e-07 -1.49541e-07
98 1 4.14662 2.0778 10.3531 9.98819e-08 -4.04282e-07 -5.96362e-05
162 1 6.21544 0.00897725 10.3531 -2.62856e-07 3.691e-07 1.4128e-07
226 1 6.21544 2.0778 8.28426 -2.21152e-07 -3.68411e-07 -1.3016e-07
35 1 8.28426 0.00897726 8.28426 1.57441e-07 3.64086e-07 -1.49541e-07
99 1 8.28426 2.0778 10.3531 2.00632e-07 -3.64535e-07 1.38421e-07
163 1 10.3531 0.00897725 10.3531 -2.62855e-07 3.691e-07 1.4128e-07
227 1 10.3531 2.0778 8.28426 -2.21152e-07 -3.68411e-07 -1.3016e-07
36 1 12.4219 0.00897726 8.28426 1.57441e-07 3.64086e-07 -1.49541e-07
100 1 12.4219 2.0778 10.3531 2.00632e-07 -3.64535e-07 1.38421e-07
164 1 14.4907 0.00897725 10.3531 0.00183879 3.69898e-07 0.0177689
228 1 14.4907 2.0778 8.28426 -2.21152e-07 -3.68411e-07 -1.3016e-07
37 1 0.0089773 4.14662 8.28426 2.08819e-07 3.64086e-07 -1.49541e-07
101 1 0.00897729 6.21544 10.3531 2.12063e-07 -3.64535e-07 1.38421e-07
165 1 2.0778 4.14662 10.3531 -2.10823e-07 3.44755e-07 7.57133e-08
229 1 2.0778 6.21544 8.28426 -2.09721e-07 -3.68411e-07 -1.3016e-07
38 1 4.14662 4.14662 8.28426 2.08819e-07 3.64086e-07 -1.49541e-07
102 1 4.14662 6.21544 10.3531 2.12063e-07 -3.64535e-07 1.38421e-07
166 1 6.21544 4.14662 10.3531 -2.11477e-07 3.691e-07 1.4128e-07
230 1 6.21544 6.21544 8.28426 -2.09721e-07 -3.68411e-07 -1.3016e-07
39 1 8.28426 4.14662 8.28426 2.08819e-07 3.64086e-07 -1.49541e-07
103 1 8.28426 6.21544 10.3531 2.12063e-07 -3.64535e-07 1.38421e-07
167 1 10.3531 4.14662 10.3531 -2.11477e-07 3.691e-07 1.4128e-07
231 1 10.3531 6.21544 8.28426 -2.09721e-07 -3.68411e-07 -1.3016e-07
40 1 12.4219 4.14662 8.28426 2.08819e-07 3.64086e-07 -1.49541e-07
104 1 12.4219 6.21544 10.3531 2.12063e-07 -3.64535e-07 1.38421e-07
168 1 14.4907 4.14662 10.3531 -2.11477e-07 3.691e-07 1.4128e-07
232 1 14.4907 6.21544 8.28426 -2.09721e-07 -3.68411e-07 -1.3016e-07
41 1 0.00897728 8.28426 8.28426 2.08939e-07 3.64086e-07 -1.49541e-07
105 1 0.00897728 10.3531 10.3531 2.12183e-07 -3.64535e-07 1.38421e-07
169 1 2.0778 8.28426 10.3531 -2.11357e-07 3.691e-07 1.4128e-07
233 1 2.0778 10.3531 8.28426 -2.09601e-07 -3.68411e-07 -1.3016e-07
42 1 4.14662 8.28426 8.28426 2.08939e-07 3.64086e-07 -1.49541e-07
106 1 4.14662 10.3531 10.3531 2.12183e-07 -3.64535e-07 1.38421e-07
170 1 6.21544 8.28426 10.3531 -2.11357e-07 3.691e-07 1.4128e-07
234 1 6.21544 10.3531 8.28426 -2.09601e-07 -3.68411e-07 -1.3016e-07
43 1 8.28426 8.28426 8.28426 2.08939e-07 3.64086e-07 -1.49541e-07
107 1 8.28426 10.3531 10.3531 2.12183e-07 -3.64535e-07 1.38421e-07
171 1 10.3531 8.28426 10.3531 -2.11357e-07 3.691e-07 1.4128e-07
235 1 10.3531 10.3531 8.28426 -2.09601e-07 -3.68411e-07 -1.3016e-07
44 1 12.4219 8.28426 8.28426 2.08939e-07 3.64086e-07 -1.49541e-07
108 1 12.4219 10.3531 10.3531 2.12183e-07 -3.64535e-07 1.38421e-07
172 1 14.4907 8.28426 10.3531 -2.11357e-07 3.691e-07 1.4128e-07
236 1 14.4907 10.3531 8.28426 -2.09601e-07 -3.68411e-07 -1.3016e-07
45 1 0.00897727 12.4219 8.28426 2.2037e-07 3.64086e-07 -1.49541e-07
109 1 0.00897726 14.4907 10.3531 0.00016326 0.00173887 0.00430467
173 1 2.0778 12.4219 10.3531 -1.99272e-07 3.93445e-07 7.57154e-08
237 1 2.0778 14.4907 8.28426 -1.58331e-07 -3.68291e-07 -1.30159e-07
46 1 4.14662 12.4219 8.28426 2.2037e-07 3.64086e-07 -1.49541e-07
110 1 4.14662 14.4907 10.3531 1.62811e-07 -3.24789e-07 -5.96363e-05
174 1 6.21544 12.4219 10.3531 -1.99926e-07 3.691e-07 1.4128e-07
238 1 6.21544 14.4907 8.28426 -1.58222e-07 -3.68411e-07 -1.3016e-07
47 1 8.28426 12.4219 8.28426 2.2037e-07 3.64086e-07 -1.49541e-07
111 1 8.28426 14.4907 10.3531 2.63562e-07 -3.64535e-07 1.38421e-07
175 1 10.3531 12.4219 10.3531 -1.99926e-07 3.691e-07 1.4128e-07
239 1 10.3531 14.4907 8.28426 -1.58222e-07 -3.68411e-07 -1.3016e-07
48 1 12.4219 12.4219 8.28426 2.2037e-07 3.64086e-07 -1.49541e-07
112 1 12.4219 14.4907 10.3531 2.63562e-07 -3.64535e-07 1.38421e-07
176 1 14.4907 12.4219 10.3531 -1.99926e-07 3.691e-07 1.4128e-07
240 1 14.4907 14.4907 8.28426 -1.58222e-07 -3.68411e-07 -1.3016e-07
49 1 0.00897732 0.00897725 12.4219 0.00446263 3.69086e-07 -0.00428397
113 1 0.00897731 2.0778 14.4907 -0.0685107 -0.0339661 0.0339659
177 1 2.0778 0.00897724 14.4907 0.182225 3.53412e-07 -0.243198
241 1 2.0778 2.0778 12.4219 0.00707518 0.00221863 0.00293522
50 1 4.14662 0.00897725 12.4219 0.000969384 3.75948e-07 -0.0773431
114 1 4.14662 2.0778 14.4907 0.00791969 0.0183412 -0.0183413
178 1 6.21544 0.00897724 14.4907 -0.0204756 4.13078e-07 -0.00789323
242 1 6.21544 2.0778 12.4219 -1.56057e-05 1.7823e-07 1.58219e-05
51 1 8.28426 0.00897725 12.4219 1.53834e-07 3.75494e-07 -1.49541e-07
115 1 8.28426 2.0778 14.4907 7.03403e-05 -3.53792e-07 1.78952e-07
179 1 10.3531 0.00897724 14.4907 0.0188715 4.15033e-07 0.00608648
243 1 10.3531 2.0778 12.4219 -2.24759e-07 -3.57003e-07 -1.3016e-07
52 1 12.4219 0.00897725 12.4219 -0.0120145 3.72825e-07 -0.0151508
116 1 12.4219 2.0778 14.4907 0.00287286 -0.0146557 0.0146555
180 1 14.4907 0.00897724 14.4907 0.135385 5.66907e-07 0.168075
244 1 14.4907 2.0778 12.4219 0.0128291 0.001626 0.0164511
53 1 0.0089773 4.14662 12.4219 -0.0004869 -0.00190095 0.00190117
117 1 0.0089773 6.21544 14.4907 0.000163192 -0.00430484 0.00173937
181 1 2.0778 4.14662 14.4907 0.00707517 -0.00293497 -0.00221884
245 1 2.0778 6.21544 12.4219 -2.12674e-07 -2.91438e-07 -1.05814e-07
54 1 4.14662 4.14662 12.4219 1.19118e-06 -1.11866e-05 1.14126e-05
118 1 4.14662 6.21544 14.4907 9.51018e-08 5.94614e-05 1.78168e-07
182 1 6.21544 4.14662 14.4907 -1.56087e-05 -1.55316e-05 -3.93955e-07
246 1 6.21544 6.21544 12.4219 -2.13328e-07 -3.57003e-07 -1.3016e-07
55 1 8.28426 4.14662 12.4219 2.05212e-07 3.75494e-07 -1.49541e-07
119 1 8.28426 6.21544 14.4907 1.95853e-07 -3.13261e-07 1.38421e-07
183 1 10.3531 4.14662 14.4907 -2.27688e-07 4.20374e-07 1.4128e-07
247 1 10.3531 6.21544 12.4219 -2.13328e-07 -3.57003e-07 -1.3016e-07
56 1 12.4219 4.14662 12.4219 2.05212e-07 3.75494e-07 -1.49541e-07
120 1 12.4219 6.21544 14.4907 1.95853e-07 -3.13261e-07 1.38421e-07
184 1 14.4907 4.14662 14.4907 0.0128291 -0.0164508 -0.00162621
248 1 14.4907 6.21544 12.4219 -2.13328e-07 -3.57003e-07 -1.3016e-07
57 1 0.00897729 8.28426 12.4219 2.05332e-07 3.75494e-07 -1.49541e-07
121 1 0.00897728 10.3531 14.4907 0.000163192 0.00430422 0.00173937
185 1 2.0778 8.28426 14.4907 -2.27676e-07 4.20376e-07 1.414e-07
249 1 2.0778 10.3531 12.4219 -2.12554e-07 -4.22569e-07 -1.05815e-07
58 1 4.14662 8.28426 12.4219 2.05332e-07 3.75494e-07 -1.49541e-07
122 1 4.14662 10.3531 14.4907 9.52224e-08 -6.0088e-05 1.78168e-07
186 1 6.21544 8.28426 14.4907 -2.27568e-07 4.20374e-07 1.4128e-07
250 1 6.21544 10.3531 12.4219 -2.13208e-07 -3.57003e-07 -1.3016e-07
59 1 8.28426 8.28426 12.4219 2.05332e-07 3.75494e-07 -1.49541e-07
123 1 8.28426 10.3531 14.4907 1.95972e-07 -3.13261e-07 1.38421e-07
187 1 10.3531 8.28426 14.4907 -2.27568e-07 4.20374e-07 1.4128e-07
251 1 10.3531 10.3531 12.4219 -2.13208e-07 -3.57003e-07 -1.3016e-07
60 1 12.4219 8.28426 12.4219 2.05332e-07 3.75494e-07 -1.49541e-07
124 1 12.4219 10.3531 14.4907 1.95972e-07 -3.13261e-07 1.38421e-07
188 1 14.4907 8.28426 14.4907 -2.27568e-07 4.20374e-07 1.4128e-07
252 1 14.4907 10.3531 12.4219 -2.13208e-07 -3.57003e-07 -1.3016e-07
61 1 0.00897727 12.4219 12.4219 -0.000486889 0.0019017 0.00190118
125 1 0.00897727 14.4907 14.4907 -0.0685106 0.0339654 0.0339659
189 1 2.0778 12.4219 14.4907 0.00707518 0.00293575 -0.00221884
253 1 2.0778 14.4907 12.4219 0.00707524 -0.00221933 0.00293527
62 1 4.14662 12.4219 12.4219 1.20273e-06 1.19376e-05 1.14126e-05
126 1 4.14662 14.4907 14.4907 0.0079197 -0.0183418 -0.0183413
190 1 6.21544 12.4219 14.4907 -1.55971e-05 1.63724e-05 -3.93956e-07
254 1 6.21544 14.4907 12.4219 -1.55428e-05 -8.9224e-07 1.58219e-05
63 1 8.28426 12.4219 12.4219 2.16763e-07 3.75494e-07 -1.49541e-07
127 1 8.28426 14.4907 14.4907 7.04034e-05 -2.72731e-07 1.78952e-07
191 1 10.3531 12.4219 14.4907 -2.16137e-07 4.20374e-07 1.4128e-07
255 1 10.3531 14.4907 12.4219 -1.61829e-07 -3.57003e-07 -1.3016e-07
64 1 12.4219 12.4219 12.4219 2.16763e-07 3.75494e-07 -1.49541e-07
128 1 12.4219 14.4907 14.4907 0.0028729 0.014655 0.0146555
192 1 14.4907 12.4219 14.4907 0.0128291 0.0164516 -0.00162622
256 1 14.4907 14.4907 12.4219 0.0128291 -0.00162673 0.0164511
