4
q [0.0, 0.0, 0.0] , b 12 , f 1.130825 , div 0 / 20 (generated by Phonopy) Lattice="4.137640 0.000000 0.000000 -0.000000 4.137640 0.000000 0.000000 -0.000000 4.137640"
Au       0.008977303486138      0.008977291044754      0.008977335089473
Au       0.008977297534172      2.077797219020273      2.077797193634468
Au       2.077797206043786      0.008977282266895      2.077797192628462
Au       2.077797196180625      2.077797227397667      0.008977328269944
4
q [0.0, 0.0, 0.0] , b 12 , f 1.130825 , div 1 / 20 (generated by Phonopy) Lattice="4.137640 0.000000 0.000000 -0.000000 4.137640 0.000000 0.000000 -0.000000 4.137640"
Au      -0.043793074609411      0.024561894861534      0.007404366440171
Au      -0.043793081543516      2.062212614728599      2.079370162537666
Au       2.130567584388519      0.024561886572441      2.079370161355571
Au       2.130567574531323      2.062212623585802      0.007404359229010
4
q [0.0, 0.0, 0.0] , b 12 , f 1.130825 , div 2 / 20 (generated by Phonopy) Lattice="4.137640 0.000000 0.000000 -0.000000 4.137640 0.000000 0.000000 -0.000000 4.137640"
Au      -0.091397920424123      0.038620969072408      0.005985370921779
Au      -0.091397928244230      2.048153540089317      2.080789158285100
Au       2.178172430428023      0.038620961224237      2.080789156944153
Au       2.178172420576209      2.048153549379363      0.005985363357322
4
q [0.0, 0.0, 0.0] , b 12 , f 1.130825 , div 3 / 20 (generated by Phonopy) Lattice="4.137640 0.000000 0.000000 -0.000000 4.137640 0.000000 0.000000 -0.000000 4.137640"
Au      -0.129177339967191      0.049778313538285      0.004859249702362
Au      -0.129177348490432      2.036996195283454      2.081915279686287
Au       2.215951850149486      0.049778306040032      2.081915278219274
Au       2.215951840301945      2.036996204917005      0.004859241857526
4
q [0.0, 0.0, 0.0] , b 12 , f 1.130825 , div 4 / 20 (generated by Phonopy) Lattice="4.137640 0.000000 0.000000 -0.000000 4.137640 0.000000 0.000000 -0.000000 4.137640"
Au      -0.153433220429045      0.056941769645056      0.004136235373023
Au      -0.153433229403726      2.029832738958398      2.082638294132329
Au       2.240207730725878      0.056941762371464      2.082638292584376
Au       2.240207720881079      2.029832748812493      0.004136227348174
4
q [0.0, 0.0, 0.0] , b 12 , f 1.130825 , div 5 / 20 (generated by Phonopy) Lattice="4.137640 0.000000 0.000000 -0.000000 4.137640 0.000000 0.000000 -0.000000 4.137640"
Au      -0.161791227229423      0.059410128398256      0.003887101613855
Au      -0.161791236359659      2.027364380129982      2.082887427931710
Au       2.248565737565722      0.059410121202077      2.082887426355868
Au       2.248565727721868      2.027364390060071      0.003887093526978
4
q [0.0, 0.0, 0.0] , b 12 , f 1.130825 , div 6 / 20 (generated by Phonopy) Lattice="4.137640 0.000000 0.000000 -0.000000 4.137640 0.000000 0.000000 -0.000000 4.137640"
Au      -0.153433220429045      0.056941769645056      0.004136235373023
Au      -0.153433229403726      2.029832738958398      2.082638294132329
Au       2.240207730725878      0.056941762371464      2.082638292584376
Au       2.240207720881079      2.029832748812493      0.004136227348174
4
q [0.0, 0.0, 0.0] , b 12 , f 1.130825 , div 7 / 20 (generated by Phonopy) Lattice="4.137640 0.000000 0.000000 -0.000000 4.137640 0.000000 0.000000 -0.000000 4.137640"
Au      -0.129177339967191      0.049778313538285      0.004859249702362
Au      -0.129177348490432      2.036996195283454      2.081915279686287
Au       2.215951850149486      0.049778306040032      2.081915278219274
Au       2.215951840301945      2.036996204917005      0.004859241857526
4
q [0.0, 0.0, 0.0] , b 12 , f 1.130825 , div 8 / 20 (generated by Phonopy) Lattice="4.137640 0.000000 0.000000 -0.000000 4.137640 0.000000 0.000000 -0.000000 4.137640"
Au      -0.091397920424123      0.038620969072408      0.005985370921779
Au      -0.091397928244230      2.048153540089317      2.080789158285100
Au       2.178172430428023      0.038620961224237      2.080789156944153
Au       2.178172420576209      2.048153549379363      0.005985363357322
4
q [0.0, 0.0, 0.0] , b 12 , f 1.130825 , div 9 / 20 (generated by Phonopy) Lattice="4.137640 0.000000 0.000000 -0.000000 4.137640 0.000000 0.000000 -0.000000 4.137640"
Au      -0.043793074609411      0.024561894861534      0.007404366440171
Au      -0.043793081543516      2.062212614728599      2.079370162537666
Au       2.130567584388519      0.024561886572441      2.079370161355571
Au       2.130567574531323      2.062212623585802      0.007404359229010
4
q [0.0, 0.0, 0.0] , b 12 , f 1.130825 , div 10 / 20 (generated by Phonopy) Lattice="4.137640 0.000000 0.000000 -0.000000 4.137640 0.000000 0.000000 -0.000000 4.137640"
Au       0.008977303486138      0.008977291044754      0.008977335089473
Au       0.008977297534172      2.077797219020273      2.077797193634468
Au       2.077797206043786      0.008977282266895      2.077797192628462
Au       2.077797196180625      2.077797227397667      0.008977328269944
4
q [0.0, 0.0, 0.0] , b 12 , f 1.130825 , div 11 / 20 (generated by Phonopy) Lattice="4.137640 0.000000 0.000000 -0.000000 4.137640 0.000000 0.000000 -0.000000 4.137640"
Au       0.061747681581686     -0.006607312772025      0.010550303738775
Au       0.061747676611860      2.093381823311947      2.076224224731270
Au       2.025026827699054     -0.006607322038651      2.076224223901354
Au       2.025026817829927      2.093381831209531      0.010550297310879
4
q [0.0, 0.0, 0.0] , b 12 , f 1.130825 , div 12 / 20 (generated by Phonopy) Lattice="4.137640 0.000000 0.000000 -0.000000 4.137640 0.000000 0.000000 -0.000000 4.137640"
Au       0.109352527396399     -0.020666386982899      0.011969299257167
Au       0.109352523312573      2.107440897951228      2.074805228983836
Au       1.977421981659550     -0.020666396690448      2.074805228312772
Au       1.977421971785040      2.107440905415971      0.011969293182567
4
q [0.0, 0.0, 0.0] , b 12 , f 1.130825 , div 13 / 20 (generated by Phonopy) Lattice="4.137640 0.000000 0.000000 -0.000000 4.137640 0.000000 0.000000 -0.000000 4.137640"
Au       0.147131946939467     -0.031823731448776      0.013095420476584
Au       0.147131943558775      2.118598242757092      2.073679107582650
Au       1.939642561938086     -0.031823741506243      2.073679107037651
Au       1.939642552059305      2.118598249878329      0.013095414682362
4
q [0.0, 0.0, 0.0] , b 12 , f 1.130825 , div 14 / 20 (generated by Phonopy) Lattice="4.137640 0.000000 0.000000 -0.000000 4.137640 0.000000 0.000000 -0.000000 4.137640"
Au       0.171387827401321     -0.038987187555547      0.013818434805923
Au       0.171387824472070      2.125761699082148      2.072956093136608
Au       1.915386681361695     -0.038987197837675      2.072956092672548
Au       1.915386671480171      2.125761705982841      0.013818429191714
4
q [0.0, 0.0, 0.0] , b 12 , f 1.130825 , div 15 / 20 (generated by Phonopy) Lattice="4.137640 0.000000 0.000000 -0.000000 4.137640 0.000000 0.000000 -0.000000 4.137640"
Au       0.179745834201698     -0.041455546308748      0.014067568565091
Au       0.179745831428003      2.128230057910564      2.072706959337227
Au       1.907028674521850     -0.041455556668288      2.072706958901057
Au       1.907028664639382      2.128230064735263      0.014067563012911
4
q [0.0, 0.0, 0.0] , b 12 , f 1.130825 , div 16 / 20 (generated by Phonopy) Lattice="4.137640 0.000000 0.000000 -0.000000 4.137640 0.000000 0.000000 -0.000000 4.137640"
Au       0.171387827401321     -0.038987187555547      0.013818434805923
Au       0.171387824472070      2.125761699082148      2.072956093136608
Au       1.915386681361695     -0.038987197837675      2.072956092672548
Au       1.915386671480171      2.125761705982841      0.013818429191714
4
q [0.0, 0.0, 0.0] , b 12 , f 1.130825 , div 17 / 20 (generated by Phonopy) Lattice="4.137640 0.000000 0.000000 -0.000000 4.137640 0.000000 0.000000 -0.000000 4.137640"
Au       0.147131946939467     -0.031823731448776      0.013095420476584
Au       0.147131943558775      2.118598242757092      2.073679107582650
Au       1.939642561938086     -0.031823741506243      2.073679107037651
Au       1.939642552059305      2.118598249878330      0.013095414682362
4
q [0.0, 0.0, 0.0] , b 12 , f 1.130825 , div 18 / 20 (generated by Phonopy) Lattice="4.137640 0.000000 0.000000 -0.000000 4.137640 0.000000 0.000000 -0.000000 4.137640"
Au       0.109352527396399     -0.020666386982899      0.011969299257167
Au       0.109352523312573      2.107440897951228      2.074805228983836
Au       1.977421981659550     -0.020666396690448      2.074805228312772
Au       1.977421971785040      2.107440905415971      0.011969293182567
4
q [0.0, 0.0, 0.0] , b 12 , f 1.130825 , div 19 / 20 (generated by Phonopy) Lattice="4.137640 0.000000 0.000000 -0.000000 4.137640 0.000000 0.000000 -0.000000 4.137640"
Au       0.061747681581686     -0.006607312772025      0.010550303738775
Au       0.061747676611860      2.093381823311947      2.076224224731270
Au       2.025026827699054     -0.006607322038651      2.076224223901354
Au       2.025026817829926      2.093381831209531      0.010550297310879
