4
q [0.0, 0.0, 0.0] , b 7 , f 0.383434 , div 0 / 20 (generated by Phonopy) Lattice="4.137640 0.000000 0.000000 -0.000000 4.137640 0.000000 0.000000 -0.000000 4.137640"
Au       0.008977303486138      0.008977291044754      0.008977335089473
Au       0.008977297534172      2.077797219020273      2.077797193634468
Au       2.077797206043786      0.008977282266895      2.077797192628462
Au       2.077797196180625      2.077797227397667      0.008977328269944
4
q [0.0, 0.0, 0.0] , b 7 , f 0.383434 , div 1 / 20 (generated by Phonopy) Lattice="4.137640 0.000000 0.000000 -0.000000 4.137640 0.000000 0.000000 -0.000000 4.137640"
Au       0.041576155128693      0.047956018227318      0.037045352016636
Au      -0.023621553982160      2.097564708648501      2.082165406587179
Au       2.030043053209225     -0.030001445121166      2.073428979609452
Au       2.125551348858242      2.058029737583539     -0.019090688546324
4
q [0.0, 0.0, 0.0] , b 7 , f 0.383434 , div 2 / 20 (generated by Phonopy) Lattice="4.137640 0.000000 0.000000 -0.000000 4.137640 0.000000 0.000000 -0.000000 4.137640"
Au       0.070984004042919      0.083119236012490      0.062365875885595
Au      -0.053029402782520      2.115397218663720      2.086106028420949
Au       1.986963409576858     -0.065164663091720      2.069488357715872
Au       2.168630992349028      2.040197227400619     -0.044411212315243
4
q [0.0, 0.0, 0.0] , b 7 , f 0.383434 , div 3 / 20 (generated by Phonopy) Lattice="4.137640 0.000000 0.000000 -0.000000 4.137640 0.000000 0.000000 -0.000000 4.137640"
Au       0.094322205080561      0.111024923646915      0.082460357401593
Au      -0.076367603729797      2.129549178739237      2.089233323614763
Au       1.952775210818948     -0.093070350873264      2.066361062474594
Au       2.202819190994579      2.026045267192015     -0.064505693751849
4
q [0.0, 0.0, 0.0] , b 7 , f 0.383434 , div 4 / 20 (generated by Phonopy) Lattice="4.137640 0.000000 0.000000 -0.000000 4.137640 0.000000 0.000000 -0.000000 4.137640"
Au       0.109306252517247      0.128941477994575      0.095361808707359
Au      -0.091351651108464      2.138635296420355      2.091241170725902
Au       1.930825036033106     -0.110986905315381      2.064353215332980
Au       2.224769365708282      2.016959149425448     -0.077407145006642
4
q [0.0, 0.0, 0.0] , b 7 , f 0.383434 , div 5 / 20 (generated by Phonopy) Lattice="4.137640 0.000000 0.000000 -0.000000 4.137640 0.000000 0.000000 -0.000000 4.137640"
Au       0.114469403389876      0.135115101883948      0.099807345859388
Au      -0.096514801961101      2.141766159201743      2.091933027689636
Au       1.923261521263232     -0.117160529237301      2.063661358358746
Au       2.232332880453298      2.013828286614617     -0.081852682141106
4
q [0.0, 0.0, 0.0] , b 7 , f 0.383434 , div 6 / 20 (generated by Phonopy) Lattice="4.137640 0.000000 0.000000 -0.000000 4.137640 0.000000 0.000000 -0.000000 4.137640"
Au       0.109306252517247      0.128941477994575      0.095361808707359
Au      -0.091351651108464      2.138635296420355      2.091241170725902
Au       1.930825036033106     -0.110986905315381      2.064353215332980
Au       2.224769365708282      2.016959149425448     -0.077407145006642
4
q [0.0, 0.0, 0.0] , b 7 , f 0.383434 , div 7 / 20 (generated by Phonopy) Lattice="4.137640 0.000000 0.000000 -0.000000 4.137640 0.000000 0.000000 -0.000000 4.137640"
Au       0.094322205080561      0.111024923646915      0.082460357401593
Au      -0.076367603729797      2.129549178739237      2.089233323614763
Au       1.952775210818948     -0.093070350873264      2.066361062474594
Au       2.202819190994579      2.026045267192015     -0.064505693751849
4
q [0.0, 0.0, 0.0] , b 7 , f 0.383434 , div 8 / 20 (generated by Phonopy) Lattice="4.137640 0.000000 0.000000 -0.000000 4.137640 0.000000 0.000000 -0.000000 4.137640"
Au       0.070984004042919      0.083119236012490      0.062365875885595
Au      -0.053029402782520      2.115397218663720      2.086106028420949
Au       1.986963409576858     -0.065164663091720      2.069488357715872
Au       2.168630992349028      2.040197227400619     -0.044411212315243
4
q [0.0, 0.0, 0.0] , b 7 , f 0.383434 , div 9 / 20 (generated by Phonopy) Lattice="4.137640 0.000000 0.000000 -0.000000 4.137640 0.000000 0.000000 -0.000000 4.137640"
Au       0.041576155128693      0.047956018227318      0.037045352016636
Au      -0.023621553982160      2.097564708648501      2.082165406587179
Au       2.030043053209225     -0.030001445121166      2.073428979609452
Au       2.125551348858242      2.058029737583539     -0.019090688546324
4
q [0.0, 0.0, 0.0] , b 7 , f 0.383434 , div 10 / 20 (generated by Phonopy) Lattice="4.137640 0.000000 0.000000 -0.000000 4.137640 0.000000 0.000000 -0.000000 4.137640"
Au       0.008977303486138      0.008977291044754      0.008977335089473
Au       0.008977297534172      2.077797219020273      2.077797193634468
Au       2.077797206043786      0.008977282266895      2.077797192628462
Au       2.077797196180625      2.077797227397667      0.008977328269944
4
q [0.0, 0.0, 0.0] , b 7 , f 0.383434 , div 11 / 20 (generated by Phonopy) Lattice="4.137640 0.000000 0.000000 -0.000000 4.137640 0.000000 0.000000 -0.000000 4.137640"
Au      -0.023621548156417     -0.030001436137809     -0.019090681837690
Au       0.041576149050504      2.058029729392044      2.073428980681757
Au       2.125551358878348      0.047956009654955      2.082165405647473
Au       2.030043043503007      2.097564717211794      0.037045345086212
4
q [0.0, 0.0, 0.0] , b 7 , f 0.383434 , div 12 / 20 (generated by Phonopy) Lattice="4.137640 0.000000 0.000000 -0.000000 4.137640 0.000000 0.000000 -0.000000 4.137640"
Au      -0.053029397070643     -0.065164653922981     -0.044411205706649
Au       0.070983997850863      2.040197219376826      2.069488358847988
Au       2.168631002510715      0.083119227625509      2.086106027541053
Au       1.986963400012222      2.115397227394714      0.062365868855131
4
q [0.0, 0.0, 0.0] , b 7 , f 0.383434 , div 13 / 20 (generated by Phonopy) Lattice="4.137640 0.000000 0.000000 -0.000000 4.137640 0.000000 0.000000 -0.000000 4.137640"
Au      -0.076367598108286     -0.093070341557406     -0.064505687222648
Au       0.094322198798140      2.026045259301309      2.066361063654174
Au       2.202819201268625      0.111024915407053      2.089233322782331
Au       1.952775201366671      2.129549187603319      0.082460350291737
4
q [0.0, 0.0, 0.0] , b 7 , f 0.383434 , div 14 / 20 (generated by Phonopy) Lattice="4.137640 0.000000 0.000000 -0.000000 4.137640 0.000000 0.000000 -0.000000 4.137640"
Au      -0.091351645544971     -0.110986895905066     -0.077407138528413
Au       0.109306246176808      2.016959141620191      2.064353216543035
Au       2.224769376054466      0.128941469849170      2.091241169923945
Au       1.930825026652969      2.138635305369886      0.095361801546530
4
q [0.0, 0.0, 0.0] , b 7 , f 0.383434 , div 15 / 20 (generated by Phonopy) Lattice="4.137640 0.000000 0.000000 -0.000000 4.137640 0.000000 0.000000 -0.000000 4.137640"
Au      -0.096514796417600     -0.117160519794439     -0.081852675680442
Au       0.114469397029445      2.013828278838803      2.063661359579301
Au       2.232332890824341      0.135115093771090      2.091933026898179
Au       1.923261511907952      2.141766168180717      0.099807338680994
4
q [0.0, 0.0, 0.0] , b 7 , f 0.383434 , div 16 / 20 (generated by Phonopy) Lattice="4.137640 0.000000 0.000000 -0.000000 4.137640 0.000000 0.000000 -0.000000 4.137640"
Au      -0.091351645544971     -0.110986895905066     -0.077407138528413
Au       0.109306246176808      2.016959141620191      2.064353216543035
Au       2.224769376054466      0.128941469849170      2.091241169923945
Au       1.930825026652969      2.138635305369886      0.095361801546530
4
q [0.0, 0.0, 0.0] , b 7 , f 0.383434 , div 17 / 20 (generated by Phonopy) Lattice="4.137640 0.000000 0.000000 -0.000000 4.137640 0.000000 0.000000 -0.000000 4.137640"
Au      -0.076367598108286     -0.093070341557406     -0.064505687222648
Au       0.094322198798140      2.026045259301309      2.066361063654174
Au       2.202819201268625      0.111024915407053      2.089233322782331
Au       1.952775201366671      2.129549187603319      0.082460350291737
4
q [0.0, 0.0, 0.0] , b 7 , f 0.383434 , div 18 / 20 (generated by Phonopy) Lattice="4.137640 0.000000 0.000000 -0.000000 4.137640 0.000000 0.000000 -0.000000 4.137640"
Au      -0.053029397070643     -0.065164653922981     -0.044411205706649
Au       0.070983997850863      2.040197219376826      2.069488358847988
Au       2.168631002510715      0.083119227625509      2.086106027541053
Au       1.986963400012222      2.115397227394714      0.062365868855131
4
q [0.0, 0.0, 0.0] , b 7 , f 0.383434 , div 19 / 20 (generated by Phonopy) Lattice="4.137640 0.000000 0.000000 -0.000000 4.137640 0.000000 0.000000 -0.000000 4.137640"
Au      -0.023621548156417     -0.030001436137809     -0.019090681837690
Au       0.041576149050504      2.058029729392044      2.073428980681757
Au       2.125551358878348      0.047956009654955      2.082165405647473
Au       2.030043043503007      2.097564717211794      0.037045345086212
