4
q [0.0, 0.0, 0.0] , b 9 , f 0.383434 , div 0 / 20 (generated by Phonopy) Lattice="4.137640 0.000000 0.000000 -0.000000 4.137640 0.000000 0.000000 -0.000000 4.137640"
Au       0.008977303486138      0.008977291044754      0.008977335089473
Au       0.008977297534172      2.077797219020273      2.077797193634468
Au       2.077797206043786      0.008977282266895      2.077797192628462
Au       2.077797196180625      2.077797227397667      0.008977328269944
4
q [0.0, 0.0, 0.0] , b 9 , f 0.383434 , div 1 / 20 (generated by Phonopy) Lattice="4.137640 0.000000 0.000000 -0.000000 4.137640 0.000000 0.000000 -0.000000 4.137640"
Au       0.070698553408202      0.002816208736266     -0.006614393939160
Au      -0.052743952035729      2.035533755665641      2.085482817813824
Au       2.088945799606079      0.015138364444843      2.070111568653006
Au       2.066648601454882      2.120060690576473      0.024569057385183
4
q [0.0, 0.0, 0.0] , b 9 , f 0.383434 , div 2 / 20 (generated by Phonopy) Lattice="4.137640 0.000000 0.000000 -0.000000 4.137640 0.000000 0.000000 -0.000000 4.137640"
Au       0.126378097350659     -0.002741783909084     -0.020679895896506
Au      -0.108423495660496      1.997407334571024      2.092416119549611
Au       2.099003091153675      0.020696356972430      2.063178267101159
Au       2.056591308857722      2.158187111512474      0.038634559420657
4
q [0.0, 0.0, 0.0] , b 9 , f 0.383434 , div 3 / 20 (generated by Phonopy) Lattice="4.137640 0.000000 0.000000 -0.000000 4.137640 0.000000 0.000000 -0.000000 4.137640"
Au       0.170565633610228     -0.007152631846355     -0.031842341450866
Au      -0.152611031667944      1.967150035475560      2.097918418960778
Au       2.106984602916626      0.025107204816245      2.057675967835968
Au       2.048609796261832      2.188444410482060      0.049797005037020
4
q [0.0, 0.0, 0.0] , b 9 , f 0.383434 , div 4 / 20 (generated by Phonopy) Lattice="4.137640 0.000000 0.000000 -0.000000 4.137640 0.000000 0.000000 -0.000000 4.137640"
Au       0.198935778265153     -0.009984570547263     -0.039009072658047
Au      -0.180981176160998      1.947723653629712      2.101451112644185
Au       2.112109048913112      0.027939143457150      2.054143274246282
Au       2.043485349730567      2.207870792247090      0.056963736284010
4
q [0.0, 0.0, 0.0] , b 9 , f 0.383434 , div 5 / 20 (generated by Phonopy) Lattice="4.137640 0.000000 0.000000 -0.000000 4.137640 0.000000 0.000000 -0.000000 4.137640"
Au       0.208711463890190     -0.010960390120486     -0.041478559933939
Au      -0.190756861730258      1.941029778640112      2.102668395928377
Au       2.113874812664881      0.028914963009698      2.052925990994385
Au       2.041719585794525      2.214564667208842      0.059433223573619
4
q [0.0, 0.0, 0.0] , b 9 , f 0.383434 , div 6 / 20 (generated by Phonopy) Lattice="4.137640 0.000000 0.000000 -0.000000 4.137640 0.000000 0.000000 -0.000000 4.137640"
Au       0.198935778265153     -0.009984570547263     -0.039009072658047
Au      -0.180981176160998      1.947723653629712      2.101451112644185
Au       2.112109048913112      0.027939143457150      2.054143274246282
Au       2.043485349730567      2.207870792247090      0.056963736284010
4
q [0.0, 0.0, 0.0] , b 9 , f 0.383434 , div 7 / 20 (generated by Phonopy) Lattice="4.137640 0.000000 0.000000 -0.000000 4.137640 0.000000 0.000000 -0.000000 4.137640"
Au       0.170565633610228     -0.007152631846355     -0.031842341450866
Au      -0.152611031667944      1.967150035475560      2.097918418960778
Au       2.106984602916626      0.025107204816245      2.057675967835968
Au       2.048609796261832      2.188444410482060      0.049797005037020
4
q [0.0, 0.0, 0.0] , b 9 , f 0.383434 , div 8 / 20 (generated by Phonopy) Lattice="4.137640 0.000000 0.000000 -0.000000 4.137640 0.000000 0.000000 -0.000000 4.137640"
Au       0.126378097350659     -0.002741783909084     -0.020679895896506
Au      -0.108423495660496      1.997407334571024      2.092416119549611
Au       2.099003091153675      0.020696356972430      2.063178267101159
Au       2.056591308857722      2.158187111512474      0.038634559420657
4
q [0.0, 0.0, 0.0] , b 9 , f 0.383434 , div 9 / 20 (generated by Phonopy) Lattice="4.137640 0.000000 0.000000 -0.000000 4.137640 0.000000 0.000000 -0.000000 4.137640"
Au       0.070698553408202      0.002816208736266     -0.006614393939160
Au      -0.052743952035729      2.035533755665641      2.085482817813824
Au       2.088945799606079      0.015138364444843      2.070111568653006
Au       2.066648601454882      2.120060690576473      0.024569057385183
4
q [0.0, 0.0, 0.0] , b 9 , f 0.383434 , div 10 / 20 (generated by Phonopy) Lattice="4.137640 0.000000 0.000000 -0.000000 4.137640 0.000000 0.000000 -0.000000 4.137640"
Au       0.008977303486138      0.008977291044754      0.008977335089473
Au       0.008977297534172      2.077797219020273      2.077797193634468
Au       2.077797206043786      0.008977282266895      2.077797192628462
Au       2.077797196180625      2.077797227397667      0.008977328269944
4
q [0.0, 0.0, 0.0] , b 9 , f 0.383434 , div 11 / 20 (generated by Phonopy) Lattice="4.137640 0.000000 0.000000 -0.000000 4.137640 0.000000 0.000000 -0.000000 4.137640"
Au      -0.052743946435926      0.015138373353243      0.024569064118105
Au       0.070698547104073      2.120060682374905      2.070111569455113
Au       2.066648612481494      0.002816200088946      2.085482816603919
Au       2.088945790906368      2.035533764218861     -0.006614400845295
4
q [0.0, 0.0, 0.0] , b 9 , f 0.383434 , div 12 / 20 (generated by Phonopy) Lattice="4.137640 0.000000 0.000000 -0.000000 4.137640 0.000000 0.000000 -0.000000 4.137640"
Au      -0.108423490378384      0.020696365998592      0.038634566075452
Au       0.126378090728839      2.158187103469522      2.063178267719326
Au       2.056591320933898     -0.002741792438641      2.092416118155766
Au       2.099003083503528      1.997407343282860     -0.020679902880769
4
q [0.0, 0.0, 0.0] , b 9 , f 0.383434 , div 13 / 20 (generated by Phonopy) Lattice="4.137640 0.000000 0.000000 -0.000000 4.137640 0.000000 0.000000 -0.000000 4.137640"
Au      -0.152611026637952      0.025107213935864      0.049797011629811
Au       0.170565626736288      2.188444402564986      2.057675968308159
Au       2.048609809170947     -0.007152640282456      2.097918417420957
Au       2.106984596099418      1.967150044313273     -0.031842348497132
4
q [0.0, 0.0, 0.0] , b 9 , f 0.383434 , div 14 / 20 (generated by Phonopy) Lattice="4.137640 0.000000 0.000000 -0.000000 4.137640 0.000000 0.000000 -0.000000 4.137640"
Au      -0.180981171292878      0.027939152636772      0.056963742836993
Au       0.198935771229342      2.207870784410834      2.054143274624751
Au       2.043485363174461     -0.009984578923361      2.101451111010642
Au       2.112109042630683      1.947723662548243     -0.039009079744122
4
q [0.0, 0.0, 0.0] , b 9 , f 0.383434 , div 15 / 20 (generated by Phonopy) Lattice="4.137640 0.000000 0.000000 -0.000000 4.137640 0.000000 0.000000 -0.000000 4.137640"
Au      -0.190756856917915      0.028914972209995      0.059433230112885
Au       0.208711456798601      2.214564659400434      2.052925991340560
Au       2.041719599422692     -0.010960398475909      2.102668394262540
Au       2.113874806566725      1.941029787586492     -0.041478567033731
4
q [0.0, 0.0, 0.0] , b 9 , f 0.383434 , div 16 / 20 (generated by Phonopy) Lattice="4.137640 0.000000 0.000000 -0.000000 4.137640 0.000000 0.000000 -0.000000 4.137640"
Au      -0.180981171292878      0.027939152636772      0.056963742836993
Au       0.198935771229342      2.207870784410834      2.054143274624751
Au       2.043485363174461     -0.009984578923361      2.101451111010642
Au       2.112109042630683      1.947723662548243     -0.039009079744122
4
q [0.0, 0.0, 0.0] , b 9 , f 0.383434 , div 17 / 20 (generated by Phonopy) Lattice="4.137640 0.000000 0.000000 -0.000000 4.137640 0.000000 0.000000 -0.000000 4.137640"
Au      -0.152611026637952      0.025107213935864      0.049797011629811
Au       0.170565626736288      2.188444402564986      2.057675968308159
Au       2.048609809170947     -0.007152640282456      2.097918417420957
Au       2.106984596099418      1.967150044313273     -0.031842348497132
4
q [0.0, 0.0, 0.0] , b 9 , f 0.383434 , div 18 / 20 (generated by Phonopy) Lattice="4.137640 0.000000 0.000000 -0.000000 4.137640 0.000000 0.000000 -0.000000 4.137640"
Au      -0.108423490378384      0.020696365998592      0.038634566075452
Au       0.126378090728840      2.158187103469522      2.063178267719326
Au       2.056591320933898     -0.002741792438641      2.092416118155766
Au       2.099003083503528      1.997407343282860     -0.020679902880769
4
q [0.0, 0.0, 0.0] , b 9 , f 0.383434 , div 19 / 20 (generated by Phonopy) Lattice="4.137640 0.000000 0.000000 -0.000000 4.137640 0.000000 0.000000 -0.000000 4.137640"
Au      -0.052743946435926      0.015138373353243      0.024569064118105
Au       0.070698547104073      2.120060682374905      2.070111569455113
Au       2.066648612481494      0.002816200088946      2.085482816603919
Au       2.088945790906368      2.035533764218861     -0.006614400845295
