4
q [0.0, 0.0, 0.0] , b 8 , f 0.383434 , div 0 / 20 (generated by Phonopy) Lattice="4.137640 0.000000 0.000000 -0.000000 4.137640 0.000000 0.000000 -0.000000 4.137640"
Au       0.008977303486138      0.008977291044754      0.008977335089473
Au       0.008977297534172      2.077797219020273      2.077797193634468
Au       2.077797206043786      0.008977282266895      2.077797192628462
Au       2.077797196180625      2.077797227397667      0.008977328269944
4
q [0.0, 0.0, 0.0] , b 8 , f 0.383434 , div 1 / 20 (generated by Phonopy) Lattice="4.137640 0.000000 0.000000 -0.000000 4.137640 0.000000 0.000000 -0.000000 4.137640"
Au       0.030275380579197     -0.048103997508913      0.047713349661141
Au      -0.012320779285751      2.098585258695000      2.057567864355619
Au       2.075266354173035      0.066058570291452      2.098026521790378
Au       2.080328047707455      2.057009188288444     -0.029758685881825
4
q [0.0, 0.0, 0.0] , b 8 , f 0.383434 , div 2 / 20 (generated by Phonopy) Lattice="4.137640 0.000000 0.000000 -0.000000 4.137640 0.000000 0.000000 -0.000000 4.137640"
Au       0.049488653493959     -0.099597771830225      0.082657613236850
Au      -0.031534051954112      2.117338420207576      2.039318722772609
Au       2.072983239716874      0.117552344135446      2.116275663267901
Au       2.082611161853358      2.038256027286017     -0.064702949078738
4
q [0.0, 0.0, 0.0] , b 8 , f 0.383434 , div 3 / 20 (generated by Phonopy) Lattice="4.137640 0.000000 0.000000 -0.000000 4.137640 0.000000 0.000000 -0.000000 4.137640"
Au       0.064736393210782     -0.140463462510388      0.110389537826811
Au      -0.046781791475391      2.132221013448190      2.024836122012828
Au       2.071171349825667      0.158418034436808      2.130758263943966
Au       2.084423051498344      2.023373434450260     -0.092434873368084
4
q [0.0, 0.0, 0.0] , b 8 , f 0.383434 , div 4 / 20 (generated by Phonopy) Lattice="4.137640 0.000000 0.000000 -0.000000 4.137640 0.000000 0.000000 -0.000000 4.137640"
Au       0.074526044728935     -0.166700851017619      0.128194529432476
Au      -0.056571442867997      2.141776226497327      2.015537719944858
Au       2.070008044906144      0.184655422700833      2.140056665958189
Au       2.085586356259783      2.013818221661057     -0.110239864780743
4
q [0.0, 0.0, 0.0] , b 8 , f 0.383434 , div 5 / 20 (generated by Phonopy) Lattice="4.137640 0.000000 0.000000 -0.000000 4.137640 0.000000 0.000000 -0.000000 4.137640"
Au       0.077899328749308     -0.175741638958195      0.134329711420812
Au      -0.059944726845110      2.145068728526653      2.012333708948886
Au       2.069607197349051      0.193696210557606      2.143260676935640
Au       2.085987203762405      2.010525719721298     -0.116375046702574
4
q [0.0, 0.0, 0.0] , b 8 , f 0.383434 , div 6 / 20 (generated by Phonopy) Lattice="4.137640 0.000000 0.000000 -0.000000 4.137640 0.000000 0.000000 -0.000000 4.137640"
Au       0.074526044728935     -0.166700851017619      0.128194529432476
Au      -0.056571442867997      2.141776226497327      2.015537719944858
Au       2.070008044906144      0.184655422700833      2.140056665958189
Au       2.085586356259783      2.013818221661057     -0.110239864780743
4
q [0.0, 0.0, 0.0] , b 8 , f 0.383434 , div 7 / 20 (generated by Phonopy) Lattice="4.137640 0.000000 0.000000 -0.000000 4.137640 0.000000 0.000000 -0.000000 4.137640"
Au       0.064736393210782     -0.140463462510388      0.110389537826811
Au      -0.046781791475391      2.132221013448190      2.024836122012828
Au       2.071171349825667      0.158418034436808      2.130758263943966
Au       2.084423051498344      2.023373434450260     -0.092434873368084
4
q [0.0, 0.0, 0.0] , b 8 , f 0.383434 , div 8 / 20 (generated by Phonopy) Lattice="4.137640 0.000000 0.000000 -0.000000 4.137640 0.000000 0.000000 -0.000000 4.137640"
Au       0.049488653493959     -0.099597771830225      0.082657613236850
Au      -0.031534051954112      2.117338420207576      2.039318722772609
Au       2.072983239716874      0.117552344135446      2.116275663267901
Au       2.082611161853358      2.038256027286017     -0.064702949078738
4
q [0.0, 0.0, 0.0] , b 8 , f 0.383434 , div 9 / 20 (generated by Phonopy) Lattice="4.137640 0.000000 0.000000 -0.000000 4.137640 0.000000 0.000000 -0.000000 4.137640"
Au       0.030275380579197     -0.048103997508913      0.047713349661141
Au      -0.012320779285751      2.098585258695000      2.057567864355619
Au       2.075266354173035      0.066058570291452      2.098026521790378
Au       2.080328047707455      2.057009188288444     -0.029758685881825
4
q [0.0, 0.0, 0.0] , b 8 , f 0.383434 , div 10 / 20 (generated by Phonopy) Lattice="4.137640 0.000000 0.000000 -0.000000 4.137640 0.000000 0.000000 -0.000000 4.137640"
Au       0.008977303486138      0.008977291044754      0.008977335089473
Au       0.008977297534172      2.077797219020273      2.077797193634468
Au       2.077797206043786      0.008977282266895      2.077797192628462
Au       2.077797196180625      2.077797227397667      0.008977328269944
4
q [0.0, 0.0, 0.0] , b 8 , f 0.383434 , div 11 / 20 (generated by Phonopy) Lattice="4.137640 0.000000 0.000000 -0.000000 4.137640 0.000000 0.000000 -0.000000 4.137640"
Au      -0.012320773606921      0.066058579598422     -0.029758679482195
Au       0.030275374354094      2.057009179345546      2.098026522913317
Au       2.080328057914538     -0.048104005757663      2.057567863466547
Au       2.075266344653795      2.098585266506889      0.047713342421713
4
q [0.0, 0.0, 0.0] , b 8 , f 0.383434 , div 12 / 20 (generated by Phonopy) Lattice="4.137640 0.000000 0.000000 -0.000000 4.137640 0.000000 0.000000 -0.000000 4.137640"
Au      -0.031534046521683      0.117552353919734     -0.064702943057905
Au       0.049488647022456      2.038256017832970      2.116275664496328
Au       2.082611172370699     -0.099597779601657      2.039318721989024
Au       2.072983230507892      2.117338427509317      0.082657605618627
4
q [0.0, 0.0, 0.0] , b 8 , f 0.383434 , div 13 / 20 (generated by Phonopy) Lattice="4.137640 0.000000 0.000000 -0.000000 4.137640 0.000000 0.000000 -0.000000 4.137640"
Au      -0.046781786238507      0.158418044599897     -0.092434867647865
Au       0.064736386543735      2.023373424592356      2.130758265256108
Au       2.084423062261906     -0.140463469903019      2.024836121312958
Au       2.071171340862906      2.132221020345074      0.110389529907972
4
q [0.0, 0.0, 0.0] , b 8 , f 0.383434 , div 14 / 20 (generated by Phonopy) Lattice="4.137640 0.000000 0.000000 -0.000000 4.137640 0.000000 0.000000 -0.000000 4.137640"
Au      -0.056571437756660      0.184655433107128     -0.110239859253530
Au       0.074526037936341      2.013818211543219      2.140056667324079
Au       2.085586367181429     -0.166700858167044      2.015537719298736
Au       2.070008036101467      2.141776233134277      0.128194521320631
4
q [0.0, 0.0, 0.0] , b 8 , f 0.383434 , div 15 / 20 (generated by Phonopy) Lattice="4.137640 0.000000 0.000000 -0.000000 4.137640 0.000000 0.000000 -0.000000 4.137640"
Au      -0.059944721777033      0.193696221047704     -0.116375041241867
Au       0.077899321913453      2.010525709513893      2.143260678320051
Au       2.085987214738522     -0.175741646023817      2.012333708321285
Au       2.069607188598845      2.145068735074036      0.134329703242463
4
q [0.0, 0.0, 0.0] , b 8 , f 0.383434 , div 16 / 20 (generated by Phonopy) Lattice="4.137640 0.000000 0.000000 -0.000000 4.137640 0.000000 0.000000 -0.000000 4.137640"
Au      -0.056571437756660      0.184655433107128     -0.110239859253530
Au       0.074526037936341      2.013818211543219      2.140056667324079
Au       2.085586367181429     -0.166700858167044      2.015537719298736
Au       2.070008036101467      2.141776233134277      0.128194521320631
4
q [0.0, 0.0, 0.0] , b 8 , f 0.383434 , div 17 / 20 (generated by Phonopy) Lattice="4.137640 0.000000 0.000000 -0.000000 4.137640 0.000000 0.000000 -0.000000 4.137640"
Au      -0.046781786238507      0.158418044599897     -0.092434867647865
Au       0.064736386543735      2.023373424592356      2.130758265256108
Au       2.084423062261906     -0.140463469903019      2.024836121312958
Au       2.071171340862906      2.132221020345074      0.110389529907972
4
q [0.0, 0.0, 0.0] , b 8 , f 0.383434 , div 18 / 20 (generated by Phonopy) Lattice="4.137640 0.000000 0.000000 -0.000000 4.137640 0.000000 0.000000 -0.000000 4.137640"
Au      -0.031534046521683      0.117552353919734     -0.064702943057905
Au       0.049488647022456      2.038256017832970      2.116275664496328
Au       2.082611172370699     -0.099597779601657      2.039318721989024
Au       2.072983230507892      2.117338427509317      0.082657605618627
4
q [0.0, 0.0, 0.0] , b 8 , f 0.383434 , div 19 / 20 (generated by Phonopy) Lattice="4.137640 0.000000 0.000000 -0.000000 4.137640 0.000000 0.000000 -0.000000 4.137640"
Au      -0.012320773606921      0.066058579598422     -0.029758679482195
Au       0.030275374354094      2.057009179345546      2.098026522913317
Au       2.080328057914538     -0.048104005757663      2.057567863466547
Au       2.075266344653795      2.098585266506890      0.047713342421713
