4
q [0.0, 0.0, 0.0] , b 1 , f -0.000001 , div 0 / 20 (generated by Phonopy) Lattice="4.137640 0.000000 0.000000 -0.000000 4.137640 0.000000 0.000000 -0.000000 4.137640"
Au       0.008977303486138      0.008977291044754      0.008977335089473
Au       0.008977297534172      2.077797219020273      2.077797193634468
Au       2.077797206043786      0.008977282266895      2.077797192628462
Au       2.077797196180625      2.077797227397667      0.008977328269944
4
q [0.0, 0.0, 0.0] , b 1 , f -0.000001 , div 1 / 20 (generated by Phonopy) Lattice="4.137640 0.000000 0.000000 -0.000000 4.137640 0.000000 0.000000 -0.000000 4.137640"
Au      -0.042447515810372     -0.010566054768552      0.010878011350936
Au      -0.042447521193937      2.058253873344163      2.079697869895341
Au       2.026372386791577     -0.010566063531291      2.079697868773938
Au       2.026372376941896      2.058253881427520      0.010878004430059
4
q [0.0, 0.0, 0.0] , b 1 , f -0.000001 , div 2 / 20 (generated by Phonopy) Lattice="4.137640 0.000000 0.000000 -0.000000 4.137640 0.000000 0.000000 -0.000000 4.137640"
Au      -0.088838515496355     -0.028196361727154      0.012592636177137
Au      -0.088838520367157      2.040623566509328      2.081412494721008
Au       1.979981387145558     -0.028196370476252      2.081412493495506
Au       1.979981377308039      2.040623574327428      0.012592629164833
4
q [0.0, 0.0, 0.0] , b 1 , f -0.000001 , div 3 / 20 (generated by Phonopy) Lattice="4.137640 0.000000 0.000000 -0.000000 4.137640 0.000000 0.000000 -0.000000 4.137640"
Au      -0.125654621297446     -0.042187852548374      0.013953370143593
Au      -0.125654625761318      2.026632075786330      2.082773228687042
Au       1.943165281376182     -0.042187861286646      2.082773227378925
Au       1.943165271548314      2.026632083393923      0.013953363058733
4
q [0.0, 0.0, 0.0] , b 1 , f -0.000001 , div 4 / 20 (generated by Phonopy) Lattice="4.137640 0.000000 0.000000 -0.000000 4.137640 0.000000 0.000000 -0.000000 4.137640"
Au      -0.149292016264943     -0.051170942626181      0.014827015128878
Au      -0.149292020467549      2.017648985771585      2.083646873672054
Au       1.919527886429049     -0.051170951357503      2.083646872310896
Au       1.919527876607377      2.017648993244024      0.014827007997433
4
q [0.0, 0.0, 0.0] , b 1 , f -0.000001 , div 5 / 20 (generated by Phonopy) Lattice="4.137640 0.000000 0.000000 -0.000000 4.137640 0.000000 0.000000 -0.000000 4.137640"
Au      -0.157436907488011     -0.054266304514890      0.015128052674787
Au      -0.157436911600592      2.014553623904606      2.083947911217871
Au       1.911382995212997     -0.054266313243817      2.083947909838435
Au       1.911382985393460      2.014553631330474      0.015128045527291
4
q [0.0, 0.0, 0.0] , b 1 , f -0.000001 , div 6 / 20 (generated by Phonopy) Lattice="4.137640 0.000000 0.000000 -0.000000 4.137640 0.000000 0.000000 -0.000000 4.137640"
Au      -0.149292016264943     -0.051170942626181      0.014827015128878
Au      -0.149292020467549      2.017648985771585      2.083646873672054
Au       1.919527886429049     -0.051170951357503      2.083646872310896
Au       1.919527876607377      2.017648993244024      0.014827007997433
4
q [0.0, 0.0, 0.0] , b 1 , f -0.000001 , div 7 / 20 (generated by Phonopy) Lattice="4.137640 0.000000 0.000000 -0.000000 4.137640 0.000000 0.000000 -0.000000 4.137640"
Au      -0.125654621297446     -0.042187852548374      0.013953370143593
Au      -0.125654625761318      2.026632075786330      2.082773228687042
Au       1.943165281376182     -0.042187861286646      2.082773227378925
Au       1.943165271548314      2.026632083393923      0.013953363058733
4
q [0.0, 0.0, 0.0] , b 1 , f -0.000001 , div 8 / 20 (generated by Phonopy) Lattice="4.137640 0.000000 0.000000 -0.000000 4.137640 0.000000 0.000000 -0.000000 4.137640"
Au      -0.088838515496355     -0.028196361727154      0.012592636177137
Au      -0.088838520367157      2.040623566509328      2.081412494721008
Au       1.979981387145558     -0.028196370476252      2.081412493495506
Au       1.979981377308039      2.040623574327428      0.012592629164833
4
q [0.0, 0.0, 0.0] , b 1 , f -0.000001 , div 9 / 20 (generated by Phonopy) Lattice="4.137640 0.000000 0.000000 -0.000000 4.137640 0.000000 0.000000 -0.000000 4.137640"
Au      -0.042447515810372     -0.010566054768552      0.010878011350936
Au      -0.042447521193937      2.058253873344163      2.079697869895341
Au       2.026372386791577     -0.010566063531291      2.079697868773938
Au       2.026372376941896      2.058253881427520      0.010878004430059
4
q [0.0, 0.0, 0.0] , b 1 , f -0.000001 , div 10 / 20 (generated by Phonopy) Lattice="4.137640 0.000000 0.000000 -0.000000 4.137640 0.000000 0.000000 -0.000000 4.137640"
Au       0.008977303486138      0.008977291044754      0.008977335089473
Au       0.008977297534172      2.077797219020273      2.077797193634468
Au       2.077797206043786      0.008977282266895      2.077797192628462
Au       2.077797196180625      2.077797227397667      0.008977328269944
4
q [0.0, 0.0, 0.0] , b 1 , f -0.000001 , div 11 / 20 (generated by Phonopy) Lattice="4.137640 0.000000 0.000000 -0.000000 4.137640 0.000000 0.000000 -0.000000 4.137640"
Au       0.060402122782648      0.028520636858061      0.007076658828010
Au       0.060402116262280      2.097340564696383      2.075896517373596
Au       2.129222025295996      0.028520628065080      2.075896516482986
Au       2.129222015419353      2.097340573367814      0.007076652109829
4
q [0.0, 0.0, 0.0] , b 1 , f -0.000001 , div 12 / 20 (generated by Phonopy) Lattice="4.137640 0.000000 0.000000 -0.000000 4.137640 0.000000 0.000000 -0.000000 4.137640"
Au       0.106793122468631      0.046150943816663      0.005362034001809
Au       0.106793115435501      2.114970871531218      2.074181892547928
Au       2.175613024942014      0.046150935010041      2.074181891761419
Au       2.175613015053211      2.114970880467905      0.005362027375055
4
q [0.0, 0.0, 0.0] , b 1 , f -0.000001 , div 13 / 20 (generated by Phonopy) Lattice="4.137640 0.000000 0.000000 -0.000000 4.137640 0.000000 0.000000 -0.000000 4.137640"
Au       0.143609228269722      0.060142434637883      0.004001300035352
Au       0.143609220829662      2.128962362254216      2.072821158581895
Au       2.212429130711390      0.060142425820435      2.072821157878000
Au       2.212429120812936      2.128962371401411      0.004001293481155
4
q [0.0, 0.0, 0.0] , b 1 , f -0.000001 , div 14 / 20 (generated by Phonopy) Lattice="4.137640 0.000000 0.000000 -0.000000 4.137640 0.000000 0.000000 -0.000000 4.137640"
Au       0.167246623237218      0.069125524715690      0.003127655050068
Au       0.167246615535893      2.137945452268961      2.071947513596883
Au       2.236066525658524      0.069125515891292      2.071947512946029
Au       2.236066515753873      2.137945461551309      0.003127648542455
4
q [0.0, 0.0, 0.0] , b 1 , f -0.000001 , div 15 / 20 (generated by Phonopy) Lattice="4.137640 0.000000 0.000000 -0.000000 4.137640 0.000000 0.000000 -0.000000 4.137640"
Au       0.175391514460286      0.072220886604399      0.002826617504158
Au       0.175391506668935      2.141040814135940      2.071646476051066
Au       2.244211416874576      0.072220877777606      2.071646475418490
Au       2.244211406967790      2.141040823464860      0.002826611012597
4
q [0.0, 0.0, 0.0] , b 1 , f -0.000001 , div 16 / 20 (generated by Phonopy) Lattice="4.137640 0.000000 0.000000 -0.000000 4.137640 0.000000 0.000000 -0.000000 4.137640"
Au       0.167246623237218      0.069125524715690      0.003127655050068
Au       0.167246615535893      2.137945452268961      2.071947513596883
Au       2.236066525658524      0.069125515891292      2.071947512946029
Au       2.236066515753873      2.137945461551309      0.003127648542455
4
q [0.0, 0.0, 0.0] , b 1 , f -0.000001 , div 17 / 20 (generated by Phonopy) Lattice="4.137640 0.000000 0.000000 -0.000000 4.137640 0.000000 0.000000 -0.000000 4.137640"
Au       0.143609228269722      0.060142434637883      0.004001300035352
Au       0.143609220829662      2.128962362254216      2.072821158581895
Au       2.212429130711390      0.060142425820435      2.072821157878000
Au       2.212429120812936      2.128962371401411      0.004001293481155
4
q [0.0, 0.0, 0.0] , b 1 , f -0.000001 , div 18 / 20 (generated by Phonopy) Lattice="4.137640 0.000000 0.000000 -0.000000 4.137640 0.000000 0.000000 -0.000000 4.137640"
Au       0.106793122468631      0.046150943816663      0.005362034001809
Au       0.106793115435501      2.114970871531218      2.074181892547928
Au       2.175613024942015      0.046150935010041      2.074181891761419
Au       2.175613015053211      2.114970880467905      0.005362027375055
4
q [0.0, 0.0, 0.0] , b 1 , f -0.000001 , div 19 / 20 (generated by Phonopy) Lattice="4.137640 0.000000 0.000000 -0.000000 4.137640 0.000000 0.000000 -0.000000 4.137640"
Au       0.060402122782648      0.028520636858061      0.007076658828010
Au       0.060402116262280      2.097340564696383      2.075896517373596
Au       2.129222025295996      0.028520628065080      2.075896516482986
Au       2.129222015419354      2.097340573367814      0.007076652109829
