4
q [0.0, 0.0, 0.0] , b 11 , f 1.130825 , div 0 / 20 (generated by Phonopy) Lattice="4.137640 0.000000 0.000000 -0.000000 4.137640 0.000000 0.000000 -0.000000 4.137640"
Au       0.008977303486138      0.008977291044754      0.008977335089473
Au       0.008977297534172      2.077797219020273      2.077797193634468
Au       2.077797206043786      0.008977282266895      2.077797192628462
Au       2.077797196180625      2.077797227397667      0.008977328269944
4
q [0.0, 0.0, 0.0] , b 11 , f 1.130825 , div 1 / 20 (generated by Phonopy) Lattice="4.137640 0.000000 0.000000 -0.000000 4.137640 0.000000 0.000000 -0.000000 4.137640"
Au       0.024628774055761      0.061220511747452      0.001511124408806
Au       0.024628768242477      2.025553998348189      2.085263404149631
Au       2.062145735436095      0.061220503287603      2.085263403862252
Au       2.062145725602866      2.025554006555603      0.001511117119664
4
q [0.0, 0.0, 0.0] , b 11 , f 1.130825 , div 2 / 20 (generated by Phonopy) Lattice="4.137640 0.000000 0.000000 -0.000000 4.137640 0.000000 0.000000 -0.000000 4.137640"
Au       0.038748169635821      0.108349802007846     -0.005224241550289
Au       0.038748163947646      1.978424708115410      2.091998769959421
Au       2.048026339821692      0.108349793834881      2.091998770320326
Au       2.048026330015467      1.978424716169484     -0.005224249263075
4
q [0.0, 0.0, 0.0] , b 11 , f 1.130825 , div 3 / 20 (generated by Phonopy) Lattice="4.137640 0.000000 0.000000 -0.000000 4.137640 0.000000 0.000000 -0.000000 4.137640"
Au       0.049953385411329      0.145751818526178     -0.010569458239681
Au       0.049953379822440      1.941022691618996      2.097343986530324
Au       2.036821124018930      0.145751810580884      2.097343987405710
Au       2.036821114234134      1.941022699551377     -0.010569466288673
4
q [0.0, 0.0, 0.0] , b 11 , f 1.130825 , div 4 / 20 (generated by Phonopy) Lattice="4.137640 0.000000 0.000000 -0.000000 4.137640 0.000000 0.000000 -0.000000 4.137640"
Au       0.057147576790849      0.169765391330459     -0.014001298607498
Au       0.057147571265705      1.917009118828786      2.100775826822067
Au       2.029626932621912      0.169765383531339      2.100775828027770
Au       2.029626922850874      1.917009126683036     -0.014001306872347
4
q [0.0, 0.0, 0.0] , b 11 , f 1.130825 , div 5 / 20 (generated by Phonopy) Lattice="4.137640 0.000000 0.000000 -0.000000 4.137640 0.000000 0.000000 -0.000000 4.137640"
Au       0.059626526197275      0.178039904602207     -0.015183830207501
Au       0.059626520694096      1.908734605561887      2.101958358395857
Au       2.027147983209457      0.178039896853455      2.101958359715379
Au       2.027147973443160      1.908734613389215     -0.015183838546729
4
q [0.0, 0.0, 0.0] , b 11 , f 1.130825 , div 6 / 20 (generated by Phonopy) Lattice="4.137640 0.000000 0.000000 -0.000000 4.137640 0.000000 0.000000 -0.000000 4.137640"
Au       0.057147576790849      0.169765391330459     -0.014001298607498
Au       0.057147571265705      1.917009118828786      2.100775826822067
Au       2.029626932621912      0.169765383531339      2.100775828027770
Au       2.029626922850874      1.917009126683036     -0.014001306872347
4
q [0.0, 0.0, 0.0] , b 11 , f 1.130825 , div 7 / 20 (generated by Phonopy) Lattice="4.137640 0.000000 0.000000 -0.000000 4.137640 0.000000 0.000000 -0.000000 4.137640"
Au       0.049953385411329      0.145751818526178     -0.010569458239681
Au       0.049953379822440      1.941022691618996      2.097343986530324
Au       2.036821124018930      0.145751810580884      2.097343987405710
Au       2.036821114234134      1.941022699551377     -0.010569466288673
4
q [0.0, 0.0, 0.0] , b 11 , f 1.130825 , div 8 / 20 (generated by Phonopy) Lattice="4.137640 0.000000 0.000000 -0.000000 4.137640 0.000000 0.000000 -0.000000 4.137640"
Au       0.038748169635821      0.108349802007846     -0.005224241550289
Au       0.038748163947646      1.978424708115410      2.091998769959421
Au       2.048026339821692      0.108349793834881      2.091998770320326
Au       2.048026330015467      1.978424716169484     -0.005224249263075
4
q [0.0, 0.0, 0.0] , b 11 , f 1.130825 , div 9 / 20 (generated by Phonopy) Lattice="4.137640 0.000000 0.000000 -0.000000 4.137640 0.000000 0.000000 -0.000000 4.137640"
Au       0.024628774055761      0.061220511747452      0.001511124408806
Au       0.024628768242477      2.025553998348189      2.085263404149631
Au       2.062145735436095      0.061220503287604      2.085263403862252
Au       2.062145725602866      2.025554006555603      0.001511117119664
4
q [0.0, 0.0, 0.0] , b 11 , f 1.130825 , div 10 / 20 (generated by Phonopy) Lattice="4.137640 0.000000 0.000000 -0.000000 4.137640 0.000000 0.000000 -0.000000 4.137640"
Au       0.008977303486138      0.008977291044754      0.008977335089473
Au       0.008977297534172      2.077797219020273      2.077797193634468
Au       2.077797206043786      0.008977282266895      2.077797192628462
Au       2.077797196180625      2.077797227397667      0.008977328269944
4
q [0.0, 0.0, 0.0] , b 11 , f 1.130825 , div 11 / 20 (generated by Phonopy) Lattice="4.137640 0.000000 0.000000 -0.000000 4.137640 0.000000 0.000000 -0.000000 4.137640"
Au      -0.006674167083485     -0.043265929657943      0.016443545770140
Au      -0.006674173174134      2.130040439692357      2.070330983119306
Au       2.093448676651478     -0.043265938753814      2.070330981394672
Au       2.093448666758384      2.130040448239730      0.016443539420224
4
q [0.0, 0.0, 0.0] , b 11 , f 1.130825 , div 12 / 20 (generated by Phonopy) Lattice="4.137640 0.000000 0.000000 -0.000000 4.137640 0.000000 0.000000 -0.000000 4.137640"
Au      -0.020793562663545     -0.090395219918338      0.023178911729235
Au      -0.020793568879302      2.177169729925135      2.063595617309516
Au       2.107568072265880     -0.090395229301092      2.063595614936599
Au       2.107568062345783      2.177169738625850      0.023178905802963
4
q [0.0, 0.0, 0.0] , b 11 , f 1.130825 , div 13 / 20 (generated by Phonopy) Lattice="4.137640 0.000000 0.000000 -0.000000 4.137640 0.000000 0.000000 -0.000000 4.137640"
Au      -0.031998778439053     -0.127797236436669      0.028524128418627
Au      -0.031998784754096      2.214571746421550      2.058250400738612
Au       2.118773288068643     -0.127797246047094      2.058250397851214
Au       2.118773278127116      2.214571755243957      0.028524122828561
4
q [0.0, 0.0, 0.0] , b 11 , f 1.130825 , div 14 / 20 (generated by Phonopy) Lattice="4.137640 0.000000 0.000000 -0.000000 4.137640 0.000000 0.000000 -0.000000 4.137640"
Au      -0.039192969818573     -0.151810809240950      0.031955968786444
Au      -0.039192976197361      2.238585319211760      2.054818560446869
Au       2.125967479465661     -0.151810818997550      2.054818557229154
Au       2.125967469510376      2.238585328112297      0.031955963412235
4
q [0.0, 0.0, 0.0] , b 11 , f 1.130825 , div 15 / 20 (generated by Phonopy) Lattice="4.137640 0.000000 0.000000 -0.000000 4.137640 0.000000 0.000000 -0.000000 4.137640"
Au      -0.041671919224999     -0.160085322512698      0.033138500386446
Au      -0.041671925625752      2.246859832478659      2.053636028873080
Au       2.128446428878116     -0.160085332319666      2.053636025541546
Au       2.128446418918090      2.246859841406119      0.033138495086617
4
q [0.0, 0.0, 0.0] , b 11 , f 1.130825 , div 16 / 20 (generated by Phonopy) Lattice="4.137640 0.000000 0.000000 -0.000000 4.137640 0.000000 0.000000 -0.000000 4.137640"
Au      -0.039192969818573     -0.151810809240950      0.031955968786444
Au      -0.039192976197361      2.238585319211760      2.054818560446869
Au       2.125967479465661     -0.151810818997550      2.054818557229154
Au       2.125967469510376      2.238585328112297      0.031955963412235
4
q [0.0, 0.0, 0.0] , b 11 , f 1.130825 , div 17 / 20 (generated by Phonopy) Lattice="4.137640 0.000000 0.000000 -0.000000 4.137640 0.000000 0.000000 -0.000000 4.137640"
Au      -0.031998778439053     -0.127797236436669      0.028524128418627
Au      -0.031998784754096      2.214571746421550      2.058250400738612
Au       2.118773288068643     -0.127797246047095      2.058250397851214
Au       2.118773278127116      2.214571755243957      0.028524122828561
4
q [0.0, 0.0, 0.0] , b 11 , f 1.130825 , div 18 / 20 (generated by Phonopy) Lattice="4.137640 0.000000 0.000000 -0.000000 4.137640 0.000000 0.000000 -0.000000 4.137640"
Au      -0.020793562663545     -0.090395219918338      0.023178911729235
Au      -0.020793568879302      2.177169729925136      2.063595617309516
Au       2.107568072265880     -0.090395229301092      2.063595614936599
Au       2.107568062345783      2.177169738625850      0.023178905802963
4
q [0.0, 0.0, 0.0] , b 11 , f 1.130825 , div 19 / 20 (generated by Phonopy) Lattice="4.137640 0.000000 0.000000 -0.000000 4.137640 0.000000 0.000000 -0.000000 4.137640"
Au      -0.006674167083485     -0.043265929657943      0.016443545770140
Au      -0.006674173174134      2.130040439692357      2.070330983119306
Au       2.093448676651478     -0.043265938753814      2.070330981394672
Au       2.093448666758384      2.130040448239730      0.016443539420224
