4
q [0.0, 0.0, 0.0] , b 5 , f 0.383434 , div 0 / 20 (generated by Phonopy) Lattice="4.137640 0.000000 0.000000 -0.000000 4.137640 0.000000 0.000000 -0.000000 4.137640"
Au       0.008977303486138      0.008977291044754      0.008977335089473
Au       0.008977297534172      2.077797219020273      2.077797193634468
Au       2.077797206043786      0.008977282266895      2.077797192628462
Au       2.077797196180625      2.077797227397667      0.008977328269944
4
q [0.0, 0.0, 0.0] , b 5 , f 0.383434 , div 1 / 20 (generated by Phonopy) Lattice="4.137640 0.000000 0.000000 -0.000000 4.137640 0.000000 0.000000 -0.000000 4.137640"
Au      -0.016670943886276      0.004354346255756      0.052475063836194
Au       0.034625545146331      2.023339451379629      2.093275163569901
Au       2.060954959245798      0.013600226913540      2.062319222897439
Au       2.094639442849425      2.132254995157910     -0.034520400584726
4
q [0.0, 0.0, 0.0] , b 5 , f 0.383434 , div 2 / 20 (generated by Phonopy) Lattice="4.137640 0.000000 0.000000 -0.000000 4.137640 0.000000 0.000000 -0.000000 4.137640"
Au      -0.039808562104031      0.000183927512654      0.091714931826690
Au       0.057763163580362      1.974212389465229      2.107238041966694
Au       2.045761348911230      0.017770645528223      2.048356344685044
Au       2.109833053067451      2.181382057180202     -0.073760268672603
4
q [0.0, 0.0, 0.0] , b 5 , f 0.383434 , div 3 / 20 (generated by Phonopy) Lattice="4.137640 0.000000 0.000000 -0.000000 4.137640 0.000000 0.000000 -0.000000 4.137640"
Au      -0.058170679886708     -0.003125735540959      0.122855867381813
Au       0.076125281534677      1.935224932385622      2.118319045002278
Au       2.033703631479738      0.021080308479923      2.037275341795800
Au       2.121890770406454      2.220369514345431     -0.104901204305009
4
q [0.0, 0.0, 0.0] , b 5 , f 0.383434 , div 4 / 20 (generated by Phonopy) Lattice="4.137640 0.000000 0.000000 -0.000000 4.137640 0.000000 0.000000 -0.000000 4.137640"
Au      -0.069959885209340     -0.005250670025618      0.142849578757772
Au       0.087914486967507      1.910193444081347      2.125433486893641
Au       2.025962100344574      0.023205242899149      2.030160899998394
Au       2.129632301482236      2.245401002704680     -0.124894915730587
4
q [0.0, 0.0, 0.0] , b 5 , f 0.383434 , div 5 / 20 (generated by Phonopy) Lattice="4.137640 0.000000 0.000000 -0.000000 4.137640 0.000000 0.000000 -0.000000 4.137640"
Au      -0.074022168514725     -0.005982872548675      0.149738942180710
Au       0.091976770310864      1.901568181032260      2.127884956499224
Au       2.023294550511667      0.023937445399659      2.027709430425185
Au       2.132299851294682      2.254026265772710     -0.131784279170622
4
q [0.0, 0.0, 0.0] , b 5 , f 0.383434 , div 6 / 20 (generated by Phonopy) Lattice="4.137640 0.000000 0.000000 -0.000000 4.137640 0.000000 0.000000 -0.000000 4.137640"
Au      -0.069959885209340     -0.005250670025618      0.142849578757772
Au       0.087914486967507      1.910193444081347      2.125433486893641
Au       2.025962100344574      0.023205242899149      2.030160899998394
Au       2.129632301482236      2.245401002704680     -0.124894915730587
4
q [0.0, 0.0, 0.0] , b 5 , f 0.383434 , div 7 / 20 (generated by Phonopy) Lattice="4.137640 0.000000 0.000000 -0.000000 4.137640 0.000000 0.000000 -0.000000 4.137640"
Au      -0.058170679886708     -0.003125735540959      0.122855867381813
Au       0.076125281534677      1.935224932385622      2.118319045002278
Au       2.033703631479738      0.021080308479923      2.037275341795800
Au       2.121890770406454      2.220369514345431     -0.104901204305009
4
q [0.0, 0.0, 0.0] , b 5 , f 0.383434 , div 8 / 20 (generated by Phonopy) Lattice="4.137640 0.000000 0.000000 -0.000000 4.137640 0.000000 0.000000 -0.000000 4.137640"
Au      -0.039808562104031      0.000183927512654      0.091714931826690
Au       0.057763163580362      1.974212389465229      2.107238041966694
Au       2.045761348911230      0.017770645528223      2.048356344685044
Au       2.109833053067451      2.181382057180202     -0.073760268672603
4
q [0.0, 0.0, 0.0] , b 5 , f 0.383434 , div 9 / 20 (generated by Phonopy) Lattice="4.137640 0.000000 0.000000 -0.000000 4.137640 0.000000 0.000000 -0.000000 4.137640"
Au      -0.016670943886276      0.004354346255756      0.052475063836194
Au       0.034625545146331      2.023339451379629      2.093275163569901
Au       2.060954959245798      0.013600226913540      2.062319222897439
Au       2.094639442849425      2.132254995157910     -0.034520400584726
4
q [0.0, 0.0, 0.0] , b 5 , f 0.383434 , div 10 / 20 (generated by Phonopy) Lattice="4.137640 0.000000 0.000000 -0.000000 4.137640 0.000000 0.000000 -0.000000 4.137640"
Au       0.008977303486138      0.008977291044754      0.008977335089473
Au       0.008977297534172      2.077797219020273      2.077797193634468
Au       2.077797206043786      0.008977282266895      2.077797192628462
Au       2.077797196180625      2.077797227397667      0.008977328269944
4
q [0.0, 0.0, 0.0] , b 5 , f 0.383434 , div 11 / 20 (generated by Phonopy) Lattice="4.137640 0.000000 0.000000 -0.000000 4.137640 0.000000 0.000000 -0.000000 4.137640"
Au       0.034625550858552      0.013600235833753     -0.034520393657249
Au      -0.016670950077987      2.132254986660917      2.062319223699036
Au       2.094639452841775      0.004354337620249      2.093275162359486
Au       2.060954949511824      2.023339459637424      0.052475057124614
4
q [0.0, 0.0, 0.0] , b 5 , f 0.383434 , div 12 / 20 (generated by Phonopy) Lattice="4.137640 0.000000 0.000000 -0.000000 4.137640 0.000000 0.000000 -0.000000 4.137640"
Au       0.057763169076307      0.017770654576855     -0.073760261647744
Au      -0.039808568512019      2.181382048575317      2.048356345302242
Au       2.109833063176343      0.000183919005566      2.107238040571881
Au       2.045761339293799      1.974212397615132      0.091714925212491
4
q [0.0, 0.0, 0.0] , b 5 , f 0.383434 , div 13 / 20 (generated by Phonopy) Lattice="4.137640 0.000000 0.000000 -0.000000 4.137640 0.000000 0.000000 -0.000000 4.137640"
Au       0.076125286858983      0.021080317630468     -0.104901197202867
Au      -0.058170686466333      2.220369505654924      2.037275342266658
Au       2.121890780607834     -0.003125743946134      2.118319043461125
Au       2.033703621954796      1.935224940449902      0.122855860844897
4
q [0.0, 0.0, 0.0] , b 5 , f 0.383434 , div 14 / 20 (generated by Phonopy) Lattice="4.137640 0.000000 0.000000 -0.000000 4.137640 0.000000 0.000000 -0.000000 4.137640"
Au       0.087914492181615      0.023205252115127     -0.124894908578827
Au      -0.069959891899164      2.245400993959199      2.030160900375296
Au       2.129632311742998     -0.005250678365360      2.125433485258531
Au       2.025962090879013      1.910193452090653      0.142849572270475
4
q [0.0, 0.0, 0.0] , b 5 , f 0.383434 , div 15 / 20 (generated by Phonopy) Lattice="4.137640 0.000000 0.000000 -0.000000 4.137640 0.000000 0.000000 -0.000000 4.137640"
Au       0.091976775487001      0.023937454638183     -0.131784272001765
Au      -0.074022175242521      2.254026257008286      2.027709430769713
Au       2.132299861575905     -0.005982880865870      2.127884954831739
Au       2.023294541066568      1.901568189022624      0.149738935710510
4
q [0.0, 0.0, 0.0] , b 5 , f 0.383434 , div 16 / 20 (generated by Phonopy) Lattice="4.137640 0.000000 0.000000 -0.000000 4.137640 0.000000 0.000000 -0.000000 4.137640"
Au       0.087914492181615      0.023205252115127     -0.124894908578827
Au      -0.069959891899164      2.245400993959199      2.030160900375296
Au       2.129632311742998     -0.005250678365360      2.125433485258531
Au       2.025962090879013      1.910193452090653      0.142849572270475
4
q [0.0, 0.0, 0.0] , b 5 , f 0.383434 , div 17 / 20 (generated by Phonopy) Lattice="4.137640 0.000000 0.000000 -0.000000 4.137640 0.000000 0.000000 -0.000000 4.137640"
Au       0.076125286858983      0.021080317630468     -0.104901197202867
Au      -0.058170686466333      2.220369505654924      2.037275342266658
Au       2.121890780607834     -0.003125743946134      2.118319043461125
Au       2.033703621954796      1.935224940449902      0.122855860844897
4
q [0.0, 0.0, 0.0] , b 5 , f 0.383434 , div 18 / 20 (generated by Phonopy) Lattice="4.137640 0.000000 0.000000 -0.000000 4.137640 0.000000 0.000000 -0.000000 4.137640"
Au       0.057763169076307      0.017770654576855     -0.073760261647744
Au      -0.039808568512019      2.181382048575317      2.048356345302242
Au       2.109833063176343      0.000183919005566      2.107238040571881
Au       2.045761339293799      1.974212397615132      0.091714925212491
4
q [0.0, 0.0, 0.0] , b 5 , f 0.383434 , div 19 / 20 (generated by Phonopy) Lattice="4.137640 0.000000 0.000000 -0.000000 4.137640 0.000000 0.000000 -0.000000 4.137640"
Au       0.034625550858552      0.013600235833753     -0.034520393657249
Au      -0.016670950077987      2.132254986660917      2.062319223699036
Au       2.094639452841775      0.004354337620249      2.093275162359486
Au       2.060954949511824      2.023339459637424      0.052475057124614
