4
q [0.0, 0.0, 0.0] , b 3 , f -0.000001 , div 0 / 20 (generated by Phonopy) Lattice="4.137640 0.000000 0.000000 -0.000000 4.137640 0.000000 0.000000 -0.000000 4.137640"
Au       0.008977303486138      0.008977291044754      0.008977335089473
Au       0.008977297534172      2.077797219020273      2.077797193634468
Au       2.077797206043786      0.008977282266895      2.077797192628462
Au       2.077797196180625      2.077797227397667      0.008977328269944
4
q [0.0, 0.0, 0.0] , b 3 , f -0.000001 , div 1 / 20 (generated by Phonopy) Lattice="4.137640 0.000000 0.000000 -0.000000 4.137640 0.000000 0.000000 -0.000000 4.137640"
Au      -0.001275438994194      0.031158489328610     -0.040347533347704
Au      -0.001275445140859      2.099978417331199      2.028472324759561
Au       2.067544463339152      0.031158480624299      2.028472323891563
Au       2.067544453618918      2.099978425819533     -0.040347540276136
4
q [0.0, 0.0, 0.0] , b 3 , f -0.000001 , div 2 / 20 (generated by Phonopy) Lattice="4.137640 0.000000 0.000000 -0.000000 4.137640 0.000000 0.000000 -0.000000 4.137640"
Au      -0.010524571605494      0.051168437378945     -0.084844139995684
Au      -0.010524577927799      2.119988365405955      1.983975717716699
Au       2.058295330525506      0.051168428740983      1.983975716973199
Au       2.058295320934208      2.119988373994370     -0.084844147022359
4
q [0.0, 0.0, 0.0] , b 3 , f -0.000001 , div 3 / 20 (generated by Phonopy) Lattice="4.137640 0.000000 0.000000 -0.000000 4.137640 0.000000 0.000000 -0.000000 4.137640"
Au      -0.017864724805272      0.067048422063089     -0.120156846969674
Au      -0.017864731266965      2.135868350109478      1.948663010429329
Au       2.050955177165146      0.067048413477781      1.948663009784632
Au       2.050955167676173      2.135868358777318     -0.120156854074315
4
q [0.0, 0.0, 0.0] , b 3 , f -0.000001 , div 4 / 20 (generated by Phonopy) Lattice="4.137640 0.000000 0.000000 -0.000000 4.137640 0.000000 0.000000 -0.000000 4.137640"
Au      -0.022577393256478      0.077243999837796     -0.142829000472963
Au      -0.022577399807664      2.146063927896628      1.925990856724838
Au       2.046242508610839      0.077243991286296      1.925990856143576
Au       2.046242499187563      2.146063936615462     -0.142829007627661
4
q [0.0, 0.0, 0.0] , b 3 , f -0.000001 , div 5 / 20 (generated by Phonopy) Lattice="4.137640 0.000000 0.000000 -0.000000 4.137640 0.000000 0.000000 -0.000000 4.137640"
Au      -0.024201268136017      0.080757156513712     -0.150641292154466
Au      -0.024201274718040      2.149577084576832      1.918178564974005
Au       2.044618633695774      0.080757147973860      1.918178564414601
Au       2.044618624295135      2.149577093313237     -0.150641299326413
4
q [0.0, 0.0, 0.0] , b 3 , f -0.000001 , div 6 / 20 (generated by Phonopy) Lattice="4.137640 0.000000 0.000000 -0.000000 4.137640 0.000000 0.000000 -0.000000 4.137640"
Au      -0.022577393256478      0.077243999837796     -0.142829000472963
Au      -0.022577399807664      2.146063927896628      1.925990856724838
Au       2.046242508610839      0.077243991286296      1.925990856143576
Au       2.046242499187563      2.146063936615462     -0.142829007627661
4
q [0.0, 0.0, 0.0] , b 3 , f -0.000001 , div 7 / 20 (generated by Phonopy) Lattice="4.137640 0.000000 0.000000 -0.000000 4.137640 0.000000 0.000000 -0.000000 4.137640"
Au      -0.017864724805272      0.067048422063089     -0.120156846969674
Au      -0.017864731266965      2.135868350109478      1.948663010429329
Au       2.050955177165146      0.067048413477781      1.948663009784632
Au       2.050955167676173      2.135868358777318     -0.120156854074315
4
q [0.0, 0.0, 0.0] , b 3 , f -0.000001 , div 8 / 20 (generated by Phonopy) Lattice="4.137640 0.000000 0.000000 -0.000000 4.137640 0.000000 0.000000 -0.000000 4.137640"
Au      -0.010524571605494      0.051168437378945     -0.084844139995684
Au      -0.010524577927799      2.119988365405955      1.983975717716699
Au       2.058295330525506      0.051168428740983      1.983975716973199
Au       2.058295320934208      2.119988373994370     -0.084844147022359
4
q [0.0, 0.0, 0.0] , b 3 , f -0.000001 , div 9 / 20 (generated by Phonopy) Lattice="4.137640 0.000000 0.000000 -0.000000 4.137640 0.000000 0.000000 -0.000000 4.137640"
Au      -0.001275438994194      0.031158489328610     -0.040347533347704
Au      -0.001275445140859      2.099978417331199      2.028472324759561
Au       2.067544463339152      0.031158480624299      2.028472323891563
Au       2.067544453618918      2.099978425819533     -0.040347540276136
4
q [0.0, 0.0, 0.0] , b 3 , f -0.000001 , div 10 / 20 (generated by Phonopy) Lattice="4.137640 0.000000 0.000000 -0.000000 4.137640 0.000000 0.000000 -0.000000 4.137640"
Au       0.008977303486138      0.008977291044754      0.008977335089473
Au       0.008977297534172      2.077797219020273      2.077797193634468
Au       2.077797206043786      0.008977282266895      2.077797192628462
Au       2.077797196180625      2.077797227397667      0.008977328269944
4
q [0.0, 0.0, 0.0] , b 3 , f -0.000001 , div 11 / 20 (generated by Phonopy) Lattice="4.137640 0.000000 0.000000 -0.000000 4.137640 0.000000 0.000000 -0.000000 4.137640"
Au       0.019230045966470     -0.013203907239101      0.058302203526650
Au       0.019230040209202      2.055616020709347      2.127122062509376
Au       2.088049948748421     -0.013203916090509      2.127122061365362
Au       2.088049938742332      2.055616028975801      0.058302196816024
4
q [0.0, 0.0, 0.0] , b 3 , f -0.000001 , div 12 / 20 (generated by Phonopy) Lattice="4.137640 0.000000 0.000000 -0.000000 4.137640 0.000000 0.000000 -0.000000 4.137640"
Au       0.028479178577770     -0.033213855289437      0.102798810174630
Au       0.028479172996142      2.035606072634591      2.171618669552238
Au       2.097299081562067     -0.033213864207194      2.171618668283726
Au       2.097299071427042      2.035606080800964      0.102798803562247
4
q [0.0, 0.0, 0.0] , b 3 , f -0.000001 , div 13 / 20 (generated by Phonopy) Lattice="4.137640 0.000000 0.000000 -0.000000 4.137640 0.000000 0.000000 -0.000000 4.137640"
Au       0.035819331777547     -0.049093839973580      0.138111517148620
Au       0.035819326335308      2.019726087931068      2.206931376839607
Au       2.104639234922427     -0.049093848943992      2.206931375472293
Au       2.104639224685077      2.019726096018016      0.138111510614203
4
q [0.0, 0.0, 0.0] , b 3 , f -0.000001 , div 14 / 20 (generated by Phonopy) Lattice="4.137640 0.000000 0.000000 -0.000000 4.137640 0.000000 0.000000 -0.000000 4.137640"
Au       0.040532000228754     -0.059289417748287      0.160783670651908
Au       0.040531994876007      2.009530510143918      2.229603530544098
Au       2.109351903476734     -0.059289426752506      2.229603529113349
Au       2.109351893173687      2.009530518179872      0.160783664167549
4
q [0.0, 0.0, 0.0] , b 3 , f -0.000001 , div 15 / 20 (generated by Phonopy) Lattice="4.137640 0.000000 0.000000 -0.000000 4.137640 0.000000 0.000000 -0.000000 4.137640"
Au       0.042155875108293     -0.062802574424203      0.168595962333412
Au       0.042155869786384      2.006017353463714      2.237415822294932
Au       2.110975778391799     -0.062802583440071      2.237415820842324
Au       2.110975768066115      2.006017361482097      0.168595955866301
4
q [0.0, 0.0, 0.0] , b 3 , f -0.000001 , div 16 / 20 (generated by Phonopy) Lattice="4.137640 0.000000 0.000000 -0.000000 4.137640 0.000000 0.000000 -0.000000 4.137640"
Au       0.040532000228754     -0.059289417748287      0.160783670651908
Au       0.040531994876007      2.009530510143918      2.229603530544098
Au       2.109351903476734     -0.059289426752506      2.229603529113349
Au       2.109351893173687      2.009530518179872      0.160783664167549
4
q [0.0, 0.0, 0.0] , b 3 , f -0.000001 , div 17 / 20 (generated by Phonopy) Lattice="4.137640 0.000000 0.000000 -0.000000 4.137640 0.000000 0.000000 -0.000000 4.137640"
Au       0.035819331777547     -0.049093839973580      0.138111517148620
Au       0.035819326335308      2.019726087931068      2.206931376839607
Au       2.104639234922427     -0.049093848943992      2.206931375472293
Au       2.104639224685077      2.019726096018016      0.138111510614203
4
q [0.0, 0.0, 0.0] , b 3 , f -0.000001 , div 18 / 20 (generated by Phonopy) Lattice="4.137640 0.000000 0.000000 -0.000000 4.137640 0.000000 0.000000 -0.000000 4.137640"
Au       0.028479178577770     -0.033213855289437      0.102798810174630
Au       0.028479172996142      2.035606072634591      2.171618669552238
Au       2.097299081562067     -0.033213864207194      2.171618668283726
Au       2.097299071427042      2.035606080800964      0.102798803562247
4
q [0.0, 0.0, 0.0] , b 3 , f -0.000001 , div 19 / 20 (generated by Phonopy) Lattice="4.137640 0.000000 0.000000 -0.000000 4.137640 0.000000 0.000000 -0.000000 4.137640"
Au       0.019230045966470     -0.013203907239101      0.058302203526650
Au       0.019230040209202      2.055616020709347      2.127122062509376
Au       2.088049948748421     -0.013203916090509      2.127122061365362
Au       2.088049938742332      2.055616028975801      0.058302196816024
