4
q [0.0, 0.0, 0.0] , b 6 , f 0.383434 , div 0 / 20 (generated by Phonopy) Lattice="4.137640 0.000000 0.000000 -0.000000 4.137640 0.000000 0.000000 -0.000000 4.137640"
Au       0.008977303486138      0.008977291044754      0.008977335089473
Au       0.008977297534172      2.077797219020273      2.077797193634468
Au       2.077797206043786      0.008977282266895      2.077797192628462
Au       2.077797196180625      2.077797227397667      0.008977328269944
4
q [0.0, 0.0, 0.0] , b 6 , f 0.383434 , div 1 / 20 (generated by Phonopy) Lattice="4.137640 0.000000 0.000000 -0.000000 4.137640 0.000000 0.000000 -0.000000 4.137640"
Au       0.017721490341943      0.032063440647124      0.047358670146793
Au       0.000233110898759      2.092405118332467      2.103390565561539
Au       2.133557088557709     -0.014108867530788      2.052203820755353
Au       2.022037313685545      2.063189327870160     -0.029404007256926
4
q [0.0, 0.0, 0.0] , b 6 , f 0.383434 , div 2 / 20 (generated by Phonopy) Lattice="4.137640 0.000000 0.000000 -0.000000 4.137640 0.000000 0.000000 -0.000000 4.137640"
Au       0.025609735263969      0.052889757075751      0.081982972710216
Au      -0.007655133824449      2.105583094680763      2.126478679924879
Au       2.183858805269223     -0.034935184135609      2.029115706440690
Au       1.971735596991030      2.050011351327626     -0.064028310243936
4
q [0.0, 0.0, 0.0] , b 6 , f 0.383434 , div 3 / 20 (generated by Phonopy) Lattice="4.137640 0.000000 0.000000 -0.000000 4.137640 0.000000 0.000000 -0.000000 4.137640"
Au       0.031869881878615      0.069417615373123      0.109460974803134
Au      -0.013915280281311      2.116041195923832      2.144801511226255
Au       2.223778473673936     -0.051463042572809      2.010792875177945
Au       1.931815928599806      2.039553249930410     -0.091506312673015
4
q [0.0, 0.0, 0.0] , b 6 , f 0.383434 , div 4 / 20 (generated by Phonopy) Lattice="4.137640 0.000000 0.000000 -0.000000 4.137640 0.000000 0.000000 -0.000000 4.137640"
Au       0.035889143418233      0.080029153612732      0.127102938130193
Au      -0.017934541719626      2.122755710246125      2.156565493075215
Au       2.249408478491712     -0.062074580902194      1.999028893353788
Au       1.906185923790692      2.032838735509149     -0.109148276215903
4
q [0.0, 0.0, 0.0] , b 6 , f 0.383434 , div 5 / 20 (generated by Phonopy) Lattice="4.137640 0.000000 0.000000 -0.000000 4.137640 0.000000 0.000000 -0.000000 4.137640"
Au       0.037274086559483      0.083685640496752      0.133181944402155
Au      -0.019319484825969      2.125069374203004      2.160619084963902
Au       2.258239976276241     -0.065731067817148      1.994975301473648
Au       1.897354426009146      2.030525071518168     -0.115227282562234
4
q [0.0, 0.0, 0.0] , b 6 , f 0.383434 , div 6 / 20 (generated by Phonopy) Lattice="4.137640 0.000000 0.000000 -0.000000 4.137640 0.000000 0.000000 -0.000000 4.137640"
Au       0.035889143418233      0.080029153612732      0.127102938130193
Au      -0.017934541719626      2.122755710246125      2.156565493075215
Au       2.249408478491712     -0.062074580902194      1.999028893353788
Au       1.906185923790692      2.032838735509149     -0.109148276215903
4
q [0.0, 0.0, 0.0] , b 6 , f 0.383434 , div 7 / 20 (generated by Phonopy) Lattice="4.137640 0.000000 0.000000 -0.000000 4.137640 0.000000 0.000000 -0.000000 4.137640"
Au       0.031869881878615      0.069417615373123      0.109460974803134
Au      -0.013915280281311      2.116041195923832      2.144801511226255
Au       2.223778473673936     -0.051463042572809      2.010792875177945
Au       1.931815928599806      2.039553249930410     -0.091506312673015
4
q [0.0, 0.0, 0.0] , b 6 , f 0.383434 , div 8 / 20 (generated by Phonopy) Lattice="4.137640 0.000000 0.000000 -0.000000 4.137640 0.000000 0.000000 -0.000000 4.137640"
Au       0.025609735263969      0.052889757075751      0.081982972710216
Au      -0.007655133824449      2.105583094680763      2.126478679924879
Au       2.183858805269223     -0.034935184135609      2.029115706440690
Au       1.971735596991030      2.050011351327626     -0.064028310243936
4
q [0.0, 0.0, 0.0] , b 6 , f 0.383434 , div 9 / 20 (generated by Phonopy) Lattice="4.137640 0.000000 0.000000 -0.000000 4.137640 0.000000 0.000000 -0.000000 4.137640"
Au       0.017721490341943      0.032063440647124      0.047358670146793
Au       0.000233110898759      2.092405118332467      2.103390565561539
Au       2.133557088557709     -0.014108867530788      2.052203820755353
Au       2.022037313685545      2.063189327870160     -0.029404007256926
4
q [0.0, 0.0, 0.0] , b 6 , f 0.383434 , div 10 / 20 (generated by Phonopy) Lattice="4.137640 0.000000 0.000000 -0.000000 4.137640 0.000000 0.000000 -0.000000 4.137640"
Au       0.008977303486138      0.008977291044754      0.008977335089473
Au       0.008977297534172      2.077797219020273      2.077797193634468
Au       2.077797206043786      0.008977282266895      2.077797192628462
Au       2.077797196180625      2.077797227397667      0.008977328269944
4
q [0.0, 0.0, 0.0] , b 6 , f 0.383434 , div 11 / 20 (generated by Phonopy) Lattice="4.137640 0.000000 0.000000 -0.000000 4.137640 0.000000 0.000000 -0.000000 4.137640"
Au       0.000233116630333     -0.014108858557615     -0.029403999967847
Au       0.017721484169584      2.063189319708079      2.052203821707398
Au       2.022037323529864      0.032063432064577      2.103390564501572
Au       2.133557078675705      2.092405126925174      0.047358663796814
4
q [0.0, 0.0, 0.0] , b 6 , f 0.383434 , div 12 / 20 (generated by Phonopy) Lattice="4.137640 0.000000 0.000000 -0.000000 4.137640 0.000000 0.000000 -0.000000 4.137640"
Au      -0.007655128291694     -0.034935174986242     -0.064028302531270
Au       0.025609728892792      2.050011343359782      2.029115707344058
Au       1.971735606818350      0.052889748669398      2.126478678816235
Au       2.183858795370220      2.105583103467707      0.081982966783824
4
q [0.0, 0.0, 0.0] , b 6 , f 0.383434 , div 13 / 20 (generated by Phonopy) Lattice="4.137640 0.000000 0.000000 -0.000000 4.137640 0.000000 0.000000 -0.000000 4.137640"
Au      -0.013915274906340     -0.051463033283614     -0.091506304624188
Au       0.031869875349655      2.039553242116714      2.010792876042681
Au       1.931815938413636      0.069417607106598      2.144801510078980
Au       2.223778463761444      2.116041204864923      0.109460969212903
4
q [0.0, 0.0, 0.0] , b 6 , f 0.383434 , div 14 / 20 (generated by Phonopy) Lattice="4.137640 0.000000 0.000000 -0.000000 4.137640 0.000000 0.000000 -0.000000 4.137640"
Au      -0.017934536445958     -0.062074571523223     -0.109148267951247
Au       0.035889136787969      2.032838727794421      1.999028894193722
Au       1.906185933595861      0.080029145435983      2.156565491903137
Au       2.249408468570558      2.122755719286185      0.127102932755791
4
q [0.0, 0.0, 0.0] , b 6 , f 0.383434 , div 15 / 20 (generated by Phonopy) Lattice="4.137640 0.000000 0.000000 -0.000000 4.137640 0.000000 0.000000 -0.000000 4.137640"
Au      -0.019319479587207     -0.065731058407243     -0.115227274223209
Au       0.037274079894312      2.030525063837541      1.994975302305035
Au       1.897354435811331      0.083685632350937      2.160619083783277
Au       2.258239966352103      2.125069383277166      0.133181939102122
4
q [0.0, 0.0, 0.0] , b 6 , f 0.383434 , div 16 / 20 (generated by Phonopy) Lattice="4.137640 0.000000 0.000000 -0.000000 4.137640 0.000000 0.000000 -0.000000 4.137640"
Au      -0.017934536445958     -0.062074571523223     -0.109148267951247
Au       0.035889136787969      2.032838727794421      1.999028894193722
Au       1.906185933595861      0.080029145435983      2.156565491903137
Au       2.249408468570558      2.122755719286185      0.127102932755791
4
q [0.0, 0.0, 0.0] , b 6 , f 0.383434 , div 17 / 20 (generated by Phonopy) Lattice="4.137640 0.000000 0.000000 -0.000000 4.137640 0.000000 0.000000 -0.000000 4.137640"
Au      -0.013915274906340     -0.051463033283614     -0.091506304624188
Au       0.031869875349655      2.039553242116714      2.010792876042681
Au       1.931815938413636      0.069417607106598      2.144801510078980
Au       2.223778463761444      2.116041204864923      0.109460969212903
4
q [0.0, 0.0, 0.0] , b 6 , f 0.383434 , div 18 / 20 (generated by Phonopy) Lattice="4.137640 0.000000 0.000000 -0.000000 4.137640 0.000000 0.000000 -0.000000 4.137640"
Au      -0.007655128291694     -0.034935174986242     -0.064028302531270
Au       0.025609728892792      2.050011343359782      2.029115707344058
Au       1.971735606818350      0.052889748669398      2.126478678816235
Au       2.183858795370220      2.105583103467707      0.081982966783824
4
q [0.0, 0.0, 0.0] , b 6 , f 0.383434 , div 19 / 20 (generated by Phonopy) Lattice="4.137640 0.000000 0.000000 -0.000000 4.137640 0.000000 0.000000 -0.000000 4.137640"
Au       0.000233116630333     -0.014108858557615     -0.029403999967847
Au       0.017721484169584      2.063189319708079      2.052203821707398
Au       2.022037323529864      0.032063432064577      2.103390564501572
Au       2.133557078675705      2.092405126925174      0.047358663796814
