4
q [0.0, 0.0, 0.0] , b 10 , f 1.130825 , div 0 / 20 (generated by Phonopy) Lattice="4.137640 0.000000 0.000000 -0.000000 4.137640 0.000000 0.000000 -0.000000 4.137640"
Au       0.008977303486138      0.008977291044754      0.008977335089473
Au       0.008977297534172      2.077797219020273      2.077797193634468
Au       2.077797206043786      0.008977282266895      2.077797192628462
Au       2.077797196180625      2.077797227397667      0.008977328269944
4
q [0.0, 0.0, 0.0] , b 10 , f 1.130825 , div 1 / 20 (generated by Phonopy) Lattice="4.137640 0.000000 0.000000 -0.000000 4.137640 0.000000 0.000000 -0.000000 4.137640"
Au       0.008356350959379      0.001372492880517     -0.045537327569971
Au       0.008356344893006      2.085402017193889      2.132311855676301
Au       2.078418158483434      0.001372484239075      2.132311855143329
Au       2.078418148867731      2.085402025386841     -0.045537334313882
4
q [0.0, 0.0, 0.0] , b 10 , f 1.130825 , div 2 / 20 (generated by Phonopy) Lattice="4.137640 0.000000 0.000000 -0.000000 4.137640 0.000000 0.000000 -0.000000 4.137640"
Au       0.007796181592370     -0.005487894653660     -0.094715715222319
Au       0.007796175422788      2.092262404736526      2.181490242771493
Au       2.078978327771860     -0.005487903172038      2.181490242665252
Au       2.078978318379392      2.092262412763091     -0.094715721898015
4
q [0.0, 0.0, 0.0] , b 10 , f 1.130825 , div 3 / 20 (generated by Phonopy) Lattice="4.137640 0.000000 0.000000 -0.000000 4.137640 0.000000 0.000000 -0.000000 4.137640"
Au       0.007351628665683     -0.010932329026801     -0.133743904638186
Au       0.007351622414195      2.097706839116382      2.220518431745198
Au       2.079422880636183     -0.010932337447515      2.220518431977613
Au       2.079422871420875      2.097706847010901     -0.133743911259746
4
q [0.0, 0.0, 0.0] , b 10 , f 1.130825 , div 4 / 20 (generated by Phonopy) Lattice="4.137640 0.000000 0.000000 -0.000000 4.137640 0.000000 0.000000 -0.000000 4.137640"
Au       0.007066208117164     -0.014427871068859     -0.158801544712160
Au       0.007066201813089      2.101202381162750      2.245576071535287
Au       2.079708301144660     -0.014427879426868      2.245576071985132
Au       2.079708292043097      2.101202388972491     -0.158801551298962
4
q [0.0, 0.0, 0.0] , b 10 , f 1.130825 , div 5 / 20 (generated by Phonopy) Lattice="4.137640 0.000000 0.000000 -0.000000 4.137640 0.000000 0.000000 -0.000000 4.137640"
Au       0.006967858898745     -0.015632352769883     -0.167435819046957
Au       0.006967852576550      2.102406862865259      2.254210345772264
Au       2.079806650349282     -0.015632361106286      2.254210346297030
Au       2.079806641286912      2.102406870645788     -0.167435825621783
4
q [0.0, 0.0, 0.0] , b 10 , f 1.130825 , div 6 / 20 (generated by Phonopy) Lattice="4.137640 0.000000 0.000000 -0.000000 4.137640 0.000000 0.000000 -0.000000 4.137640"
Au       0.007066208117164     -0.014427871068859     -0.158801544712160
Au       0.007066201813089      2.101202381162750      2.245576071535287
Au       2.079708301144660     -0.014427879426868      2.245576071985132
Au       2.079708292043097      2.101202388972491     -0.158801551298962
4
q [0.0, 0.0, 0.0] , b 10 , f 1.130825 , div 7 / 20 (generated by Phonopy) Lattice="4.137640 0.000000 0.000000 -0.000000 4.137640 0.000000 0.000000 -0.000000 4.137640"
Au       0.007351628665683     -0.010932329026801     -0.133743904638186
Au       0.007351622414195      2.097706839116382      2.220518431745198
Au       2.079422880636183     -0.010932337447515      2.220518431977613
Au       2.079422871420875      2.097706847010901     -0.133743911259746
4
q [0.0, 0.0, 0.0] , b 10 , f 1.130825 , div 8 / 20 (generated by Phonopy) Lattice="4.137640 0.000000 0.000000 -0.000000 4.137640 0.000000 0.000000 -0.000000 4.137640"
Au       0.007796181592370     -0.005487894653660     -0.094715715222319
Au       0.007796175422788      2.092262404736526      2.181490242771493
Au       2.078978327771860     -0.005487903172038      2.181490242665252
Au       2.078978318379392      2.092262412763091     -0.094715721898015
4
q [0.0, 0.0, 0.0] , b 10 , f 1.130825 , div 9 / 20 (generated by Phonopy) Lattice="4.137640 0.000000 0.000000 -0.000000 4.137640 0.000000 0.000000 -0.000000 4.137640"
Au       0.008356350959379      0.001372492880517     -0.045537327569971
Au       0.008356344893006      2.085402017193889      2.132311855676301
Au       2.078418158483434      0.001372484239075      2.132311855143329
Au       2.078418148867731      2.085402025386841     -0.045537334313882
4
q [0.0, 0.0, 0.0] , b 10 , f 1.130825 , div 10 / 20 (generated by Phonopy) Lattice="4.137640 0.000000 0.000000 -0.000000 4.137640 0.000000 0.000000 -0.000000 4.137640"
Au       0.008977303486138      0.008977291044754      0.008977335089473
Au       0.008977297534172      2.077797219020273      2.077797193634468
Au       2.077797206043786      0.008977282266895      2.077797192628462
Au       2.077797196180625      2.077797227397667      0.008977328269944
4
q [0.0, 0.0, 0.0] , b 10 , f 1.130825 , div 11 / 20 (generated by Phonopy) Lattice="4.137640 0.000000 0.000000 -0.000000 4.137640 0.000000 0.000000 -0.000000 4.137640"
Au       0.009598256012897      0.016582089208992      0.063491997748917
Au       0.009598250175338      2.070192420846657      2.023282531592636
Au       2.077176253604138      0.016582080294714      2.023282530113596
Au       2.077176243493519      2.070192429408493      0.063491990853771
4
q [0.0, 0.0, 0.0] , b 10 , f 1.130825 , div 12 / 20 (generated by Phonopy) Lattice="4.137640 0.000000 0.000000 -0.000000 4.137640 0.000000 0.000000 -0.000000 4.137640"
Au       0.010158425379906      0.023442476743169      0.112670385401265
Au       0.010158419645555      2.063332033304019      1.974104144497444
Au       2.076616084315713      0.023442467705827      1.974104142591673
Au       2.076616073981858      2.063332042032243      0.112670378437904
4
q [0.0, 0.0, 0.0] , b 10 , f 1.130825 , div 13 / 20 (generated by Phonopy) Lattice="4.137640 0.000000 0.000000 -0.000000 4.137640 0.000000 0.000000 -0.000000 4.137640"
Au       0.010602978306593      0.028886911116310      0.151698574817132
Au       0.010602972654149      2.057887598924164      1.935075955523738
Au       2.076171531451390      0.028886901981304      1.935075953279312
Au       2.076171520940375      2.057887607784433      0.151698567799634
4
q [0.0, 0.0, 0.0] , b 10 , f 1.130825 , div 14 / 20 (generated by Phonopy) Lattice="4.137640 0.000000 0.000000 -0.000000 4.137640 0.000000 0.000000 -0.000000 4.137640"
Au       0.010888398855111      0.032382453158368      0.176756214891106
Au       0.010888393255255      2.054392056877795      1.910018315733649
Au       2.075886110942912      0.032382443960657      1.910018313271793
Au       2.075886100318153      2.054392065822843      0.176756207838851
4
q [0.0, 0.0, 0.0] , b 10 , f 1.130825 , div 15 / 20 (generated by Phonopy) Lattice="4.137640 0.000000 0.000000 -0.000000 4.137640 0.000000 0.000000 -0.000000 4.137640"
Au       0.010986748073530      0.033586934859392      0.185390489225903
Au       0.010986742491794      2.053187575175286      1.901384041496673
Au       2.075787761738290      0.033586925640075      1.901384038959895
Au       2.075787751074338      2.053187584149546      0.185390482161671
4
q [0.0, 0.0, 0.0] , b 10 , f 1.130825 , div 16 / 20 (generated by Phonopy) Lattice="4.137640 0.000000 0.000000 -0.000000 4.137640 0.000000 0.000000 -0.000000 4.137640"
Au       0.010888398855111      0.032382453158368      0.176756214891106
Au       0.010888393255255      2.054392056877795      1.910018315733649
Au       2.075886110942912      0.032382443960657      1.910018313271793
Au       2.075886100318153      2.054392065822843      0.176756207838851
4
q [0.0, 0.0, 0.0] , b 10 , f 1.130825 , div 17 / 20 (generated by Phonopy) Lattice="4.137640 0.000000 0.000000 -0.000000 4.137640 0.000000 0.000000 -0.000000 4.137640"
Au       0.010602978306593      0.028886911116310      0.151698574817132
Au       0.010602972654149      2.057887598924164      1.935075955523738
Au       2.076171531451390      0.028886901981304      1.935075953279312
Au       2.076171520940375      2.057887607784433      0.151698567799634
4
q [0.0, 0.0, 0.0] , b 10 , f 1.130825 , div 18 / 20 (generated by Phonopy) Lattice="4.137640 0.000000 0.000000 -0.000000 4.137640 0.000000 0.000000 -0.000000 4.137640"
Au       0.010158425379906      0.023442476743169      0.112670385401265
Au       0.010158419645555      2.063332033304019      1.974104144497443
Au       2.076616084315713      0.023442467705827      1.974104142591673
Au       2.076616073981858      2.063332042032243      0.112670378437904
4
q [0.0, 0.0, 0.0] , b 10 , f 1.130825 , div 19 / 20 (generated by Phonopy) Lattice="4.137640 0.000000 0.000000 -0.000000 4.137640 0.000000 0.000000 -0.000000 4.137640"
Au       0.009598256012897      0.016582089208992      0.063491997748917
Au       0.009598250175338      2.070192420846657      2.023282531592636
Au       2.077176253604138      0.016582080294714      2.023282530113596
Au       2.077176243493519      2.070192429408493      0.063491990853771
