4
q [0.0, 0.0, 0.0] , b 2 , f -0.000001 , div 0 / 20 (generated by Phonopy) Lattice="4.137640 0.000000 0.000000 -0.000000 4.137640 0.000000 0.000000 -0.000000 4.137640"
Au       0.008977303486138      0.008977291044754      0.008977335089473
Au       0.008977297534172      2.077797219020273      2.077797193634468
Au       2.077797206043786      0.008977282266895      2.077797192628462
Au       2.077797196180625      2.077797227397667      0.008977328269944
4
q [0.0, 0.0, 0.0] , b 2 , f -0.000001 , div 1 / 20 (generated by Phonopy) Lattice="4.137640 0.000000 0.000000 -0.000000 4.137640 0.000000 0.000000 -0.000000 4.137640"
Au       0.025723533014069     -0.037456737866628     -0.015384760929596
Au       0.025723527094756      2.031363190064078      2.053435097406176
Au       2.094543435570431     -0.037456746369182      2.053435096737281
Au       2.094543425836173      2.031363198618223     -0.015384767536541
4
q [0.0, 0.0, 0.0] , b 2 , f -0.000001 , div 2 / 20 (generated by Phonopy) Lattice="4.137640 0.000000 0.000000 -0.000000 4.137640 0.000000 0.000000 -0.000000 4.137640"
Au       0.040830524917964     -0.079345480503260     -0.037362125249614
Au       0.040830519028107      1.989474447387019      2.031457732897414
Au       2.109650427473166     -0.079345488757457      2.031457732532632
Au       2.109650417855193      1.989474456100614     -0.037362131664784
4
q [0.0, 0.0, 0.0] , b 2 , f -0.000001 , div 3 / 20 (generated by Phonopy) Lattice="4.137640 0.000000 0.000000 -0.000000 4.137640 0.000000 0.000000 -0.000000 4.137640"
Au       0.052819501573669     -0.112588574879839     -0.054803460325638
Au       0.052819495707188      1.956231352978358      2.014016397671603
Au       2.121639404127949     -0.112588582936939      2.014016397548165
Au       2.121639394602262      1.956231361818493     -0.054803466588614
4
q [0.0, 0.0, 0.0] , b 2 , f -0.000001 , div 4 / 20 (generated by Phonopy) Lattice="4.137640 0.000000 0.000000 -0.000000 4.137640 0.000000 0.000000 -0.000000 4.137640"
Au       0.060516898414010     -0.133931955300526     -0.066001486759498
Au       0.060516892562538      1.934887972537073      2.002818371141574
Au       2.129336800967699     -0.133931963231081      2.002818371173089
Au       2.129336791501261      1.934887981458451     -0.066001492924760
4
q [0.0, 0.0, 0.0] , b 2 , f -0.000001 , div 5 / 20 (generated by Phonopy) Lattice="4.137640 0.000000 0.000000 -0.000000 4.137640 0.000000 0.000000 -0.000000 4.137640"
Au       0.063169240605337     -0.141286382981668     -0.069860063702611
Au       0.063169234759038      1.927533544848833      1.998959794165323
Au       2.131989143158823     -0.141286390868620      1.998959794250231
Au       2.131989133712802      1.927533553798206     -0.069860069834203
4
q [0.0, 0.0, 0.0] , b 2 , f -0.000001 , div 6 / 20 (generated by Phonopy) Lattice="4.137640 0.000000 0.000000 -0.000000 4.137640 0.000000 0.000000 -0.000000 4.137640"
Au       0.060516898414010     -0.133931955300526     -0.066001486759498
Au       0.060516892562538      1.934887972537073      2.002818371141574
Au       2.129336800967699     -0.133931963231081      2.002818371173089
Au       2.129336791501261      1.934887981458451     -0.066001492924760
4
q [0.0, 0.0, 0.0] , b 2 , f -0.000001 , div 7 / 20 (generated by Phonopy) Lattice="4.137640 0.000000 0.000000 -0.000000 4.137640 0.000000 0.000000 -0.000000 4.137640"
Au       0.052819501573669     -0.112588574879839     -0.054803460325638
Au       0.052819495707188      1.956231352978358      2.014016397671603
Au       2.121639404127949     -0.112588582936939      2.014016397548165
Au       2.121639394602262      1.956231361818493     -0.054803466588614
4
q [0.0, 0.0, 0.0] , b 2 , f -0.000001 , div 8 / 20 (generated by Phonopy) Lattice="4.137640 0.000000 0.000000 -0.000000 4.137640 0.000000 0.000000 -0.000000 4.137640"
Au       0.040830524917964     -0.079345480503260     -0.037362125249614
Au       0.040830519028107      1.989474447387019      2.031457732897414
Au       2.109650427473166     -0.079345488757457      2.031457732532632
Au       2.109650417855193      1.989474456100614     -0.037362131664784
4
q [0.0, 0.0, 0.0] , b 2 , f -0.000001 , div 9 / 20 (generated by Phonopy) Lattice="4.137640 0.000000 0.000000 -0.000000 4.137640 0.000000 0.000000 -0.000000 4.137640"
Au       0.025723533014069     -0.037456737866628     -0.015384760929596
Au       0.025723527094756      2.031363190064078      2.053435097406176
Au       2.094543435570431     -0.037456746369182      2.053435096737281
Au       2.094543425836173      2.031363198618223     -0.015384767536541
4
q [0.0, 0.0, 0.0] , b 2 , f -0.000001 , div 10 / 20 (generated by Phonopy) Lattice="4.137640 0.000000 0.000000 -0.000000 4.137640 0.000000 0.000000 -0.000000 4.137640"
Au       0.008977303486138      0.008977291044754      0.008977335089473
Au       0.008977297534172      2.077797219020273      2.077797193634468
Au       2.077797206043786      0.008977282266895      2.077797192628462
Au       2.077797196180625      2.077797227397667      0.008977328269944
4
q [0.0, 0.0, 0.0] , b 2 , f -0.000001 , div 11 / 20 (generated by Phonopy) Lattice="4.137640 0.000000 0.000000 -0.000000 4.137640 0.000000 0.000000 -0.000000 4.137640"
Au      -0.007768926041793      0.055411319956136      0.033339431108542
Au      -0.007768932026412      2.124231247976468      2.102159289862761
Au       2.061050976517142      0.055411310902971      2.102159288519644
Au       2.061050966525077      2.124231256177111      0.033339424076429
4
q [0.0, 0.0, 0.0] , b 2 , f -0.000001 , div 12 / 20 (generated by Phonopy) Lattice="4.137640 0.000000 0.000000 -0.000000 4.137640 0.000000 0.000000 -0.000000 4.137640"
Au      -0.022875917945689      0.097300062592769      0.055316795428560
Au      -0.022875923959764      2.166119990653527      2.124136654371522
Au       2.045943984614407      0.097300053291246      2.124136652724293
Au       2.045943974506057      2.166119998694720      0.055316788204672
4
q [0.0, 0.0, 0.0] , b 2 , f -0.000001 , div 13 / 20 (generated by Phonopy) Lattice="4.137640 0.000000 0.000000 -0.000000 4.137640 0.000000 0.000000 -0.000000 4.137640"
Au      -0.034864894601393      0.130543156969348      0.072758130504583
Au      -0.034864900638845      2.199363085062187      2.141577989597333
Au       2.033955007959623      0.130543147470728      2.141577987708760
Au       2.033954997758988      2.199363092976841      0.072758123128503
4
q [0.0, 0.0, 0.0] , b 2 , f -0.000001 , div 14 / 20 (generated by Phonopy) Lattice="4.137640 0.000000 0.000000 -0.000000 4.137640 0.000000 0.000000 -0.000000 4.137640"
Au      -0.042562291441734      0.151886537390035      0.083956156938444
Au      -0.042562297494195      2.220706465503473      2.152776016127363
Au       2.026257611119874      0.151886527764870      2.152776014083836
Au       2.026257600859989      2.220706473336882      0.083956149464649
4
q [0.0, 0.0, 0.0] , b 2 , f -0.000001 , div 15 / 20 (generated by Phonopy) Lattice="4.137640 0.000000 0.000000 -0.000000 4.137640 0.000000 0.000000 -0.000000 4.137640"
Au      -0.045214633633061      0.159240965071177      0.087814733881556
Au      -0.045214639690694      2.228060893191713      2.156634593103613
Au       2.023605268928750      0.159240955402409      2.156634591006694
Au       2.023605258648448      2.228060900997128      0.087814726374091
4
q [0.0, 0.0, 0.0] , b 2 , f -0.000001 , div 16 / 20 (generated by Phonopy) Lattice="4.137640 0.000000 0.000000 -0.000000 4.137640 0.000000 0.000000 -0.000000 4.137640"
Au      -0.042562291441734      0.151886537390035      0.083956156938444
Au      -0.042562297494195      2.220706465503473      2.152776016127363
Au       2.026257611119874      0.151886527764870      2.152776014083836
Au       2.026257600859989      2.220706473336882      0.083956149464649
4
q [0.0, 0.0, 0.0] , b 2 , f -0.000001 , div 17 / 20 (generated by Phonopy) Lattice="4.137640 0.000000 0.000000 -0.000000 4.137640 0.000000 0.000000 -0.000000 4.137640"
Au      -0.034864894601393      0.130543156969348      0.072758130504583
Au      -0.034864900638845      2.199363085062187      2.141577989597333
Au       2.033955007959623      0.130543147470728      2.141577987708760
Au       2.033954997758988      2.199363092976841      0.072758123128503
4
q [0.0, 0.0, 0.0] , b 2 , f -0.000001 , div 18 / 20 (generated by Phonopy) Lattice="4.137640 0.000000 0.000000 -0.000000 4.137640 0.000000 0.000000 -0.000000 4.137640"
Au      -0.022875917945689      0.097300062592769      0.055316795428560
Au      -0.022875923959764      2.166119990653527      2.124136654371522
Au       2.045943984614407      0.097300053291246      2.124136652724293
Au       2.045943974506057      2.166119998694720      0.055316788204672
4
q [0.0, 0.0, 0.0] , b 2 , f -0.000001 , div 19 / 20 (generated by Phonopy) Lattice="4.137640 0.000000 0.000000 -0.000000 4.137640 0.000000 0.000000 -0.000000 4.137640"
Au      -0.007768926041793      0.055411319956137      0.033339431108542
Au      -0.007768932026412      2.124231247976468      2.102159289862761
Au       2.061050976517142      0.055411310902971      2.102159288519644
Au       2.061050966525077      2.124231256177111      0.033339424076429
