4
q [0.0, 0.0, 0.0] , b 4 , f 0.383434 , div 0 / 20 (generated by Phonopy) Lattice="4.137640 0.000000 0.000000 -0.000000 4.137640 0.000000 0.000000 -0.000000 4.137640"
Au       0.008977303486138      0.008977291044754      0.008977335089473
Au       0.008977297534172      2.077797219020273      2.077797193634468
Au       2.077797206043786      0.008977282266895      2.077797192628462
Au       2.077797196180625      2.077797227397667      0.008977328269944
4
q [0.0, 0.0, 0.0] , b 4 , f 0.383434 , div 1 / 20 (generated by Phonopy) Lattice="4.137640 0.000000 0.000000 -0.000000 4.137640 0.000000 0.000000 -0.000000 4.137640"
Au       0.008791189729105     -0.017294716778022     -0.003811731181485
Au       0.009163411632254      2.094289585831763      2.146194341421706
Au       2.061792435552320      0.035249290371323      2.009400044950128
Au       2.093801966585917      2.061304860231246      0.021766394174182
4
q [0.0, 0.0, 0.0] , b 4 , f 0.383434 , div 2 / 20 (generated by Phonopy) Lattice="4.137640 0.000000 0.000000 -0.000000 4.137640 0.000000 0.000000 -0.000000 4.137640"
Au       0.008623294083341     -0.040995037427263     -0.015348914539177
Au       0.009331307585683      2.109167564870669      2.207896299832578
Au       2.047354323508351      0.058949611274646      1.947698086637499
Au       2.108240078552146      2.046426880872153      0.033303577201051
4
q [0.0, 0.0, 0.0] , b 4 , f 0.383434 , div 3 / 20 (generated by Phonopy) Lattice="4.137640 0.000000 0.000000 -0.000000 4.137640 0.000000 0.000000 -0.000000 4.137640"
Au       0.008490051344452     -0.059803718387977     -0.024504875092270
Au       0.009464550568737      2.120974795887685      2.256863251275006
Au       2.035896172914985      0.077758292437001      1.898731135273037
Au       2.119698229083817      2.034619649601034      0.042459537491601
4
q [0.0, 0.0, 0.0] , b 4 , f 0.383434 , div 4 / 20 (generated by Phonopy) Lattice="4.137640 0.000000 0.000000 -0.000000 4.137640 0.000000 0.000000 -0.000000 4.137640"
Au       0.008404504240076     -0.071879634919943     -0.030383363628497
Au       0.009550097829876      2.128555504845052      2.288301969368992
Au       2.028539587385931      0.089834209098429      1.867292417229108
Au       2.127054814573261      2.027038940480524      0.048338025859267
4
q [0.0, 0.0, 0.0] , b 4 , f 0.383434 , div 5 / 20 (generated by Phonopy) Lattice="4.137640 0.000000 0.000000 -0.000000 4.137640 0.000000 0.000000 -0.000000 4.137640"
Au       0.008375026716831     -0.076040712175155     -0.032408952732097
Au       0.009579575407137      2.131167639132117      2.299135013341069
Au       2.026004680769117      0.093995286398251      1.856459373274281
Au       2.129589721176426      2.024426806137243      0.050363614904783
4
q [0.0, 0.0, 0.0] , b 4 , f 0.383434 , div 6 / 20 (generated by Phonopy) Lattice="4.137640 0.000000 0.000000 -0.000000 4.137640 0.000000 0.000000 -0.000000 4.137640"
Au       0.008404504240076     -0.071879634919943     -0.030383363628497
Au       0.009550097829876      2.128555504845052      2.288301969368992
Au       2.028539587385931      0.089834209098429      1.867292417229108
Au       2.127054814573261      2.027038940480524      0.048338025859267
4
q [0.0, 0.0, 0.0] , b 4 , f 0.383434 , div 7 / 20 (generated by Phonopy) Lattice="4.137640 0.000000 0.000000 -0.000000 4.137640 0.000000 0.000000 -0.000000 4.137640"
Au       0.008490051344452     -0.059803718387977     -0.024504875092270
Au       0.009464550568737      2.120974795887685      2.256863251275006
Au       2.035896172914985      0.077758292437001      1.898731135273037
Au       2.119698229083817      2.034619649601034      0.042459537491601
4
q [0.0, 0.0, 0.0] , b 4 , f 0.383434 , div 8 / 20 (generated by Phonopy) Lattice="4.137640 0.000000 0.000000 -0.000000 4.137640 0.000000 0.000000 -0.000000 4.137640"
Au       0.008623294083341     -0.040995037427263     -0.015348914539177
Au       0.009331307585683      2.109167564870669      2.207896299832578
Au       2.047354323508351      0.058949611274646      1.947698086637499
Au       2.108240078552146      2.046426880872153      0.033303577201051
4
q [0.0, 0.0, 0.0] , b 4 , f 0.383434 , div 9 / 20 (generated by Phonopy) Lattice="4.137640 0.000000 0.000000 -0.000000 4.137640 0.000000 0.000000 -0.000000 4.137640"
Au       0.008791189729105     -0.017294716778022     -0.003811731181485
Au       0.009163411632254      2.094289585831763      2.146194341421706
Au       2.061792435552320      0.035249290371323      2.009400044950128
Au       2.093801966585917      2.061304860231246      0.021766394174182
4
q [0.0, 0.0, 0.0] , b 4 , f 0.383434 , div 10 / 20 (generated by Phonopy) Lattice="4.137640 0.000000 0.000000 -0.000000 4.137640 0.000000 0.000000 -0.000000 4.137640"
Au       0.008977303486138      0.008977291044754      0.008977335089473
Au       0.008977297534172      2.077797219020273      2.077797193634468
Au       2.077797206043786      0.008977282266895      2.077797192628462
Au       2.077797196180625      2.077797227397667      0.008977328269944
4
q [0.0, 0.0, 0.0] , b 4 , f 0.383434 , div 11 / 20 (generated by Phonopy) Lattice="4.137640 0.000000 0.000000 -0.000000 4.137640 0.000000 0.000000 -0.000000 4.137640"
Au       0.009163417243171      0.035249298867531      0.021766401360431
Au       0.008791183436089      2.061304852208782      2.009400045847231
Au       2.093801976535253     -0.017294725837534      2.146194340306796
Au       2.061792425775333      2.094289594564088     -0.003811737634294
4
q [0.0, 0.0, 0.0] , b 4 , f 0.383434 , div 12 / 20 (generated by Phonopy) Lattice="4.137640 0.000000 0.000000 -0.000000 4.137640 0.000000 0.000000 -0.000000 4.137640"
Au       0.009331312888935      0.058949619516771      0.033303584718123
Au       0.008623287482660      2.046426873169877      1.947698087436358
Au       2.108240088579222     -0.040995046740857      2.207896298619426
Au       2.047354313809104      2.109167573923180     -0.015348920661163
4
q [0.0, 0.0, 0.0] , b 4 , f 0.383434 , div 13 / 20 (generated by Phonopy) Lattice="4.137640 0.000000 0.000000 -0.000000 4.137640 0.000000 0.000000 -0.000000 4.137640"
Au       0.009464555627824      0.077758300477485      0.042459545271215
Au       0.008490044499607      2.034619642152860      1.898731135993931
Au       2.119698239172588     -0.059803727903212      2.256863249983887
Au       2.035896163277433      2.120974805194300     -0.024504880951713
4
q [0.0, 0.0, 0.0] , b 4 , f 0.383434 , div 14 / 20 (generated by Phonopy) Lattice="4.137640 0.000000 0.000000 -0.000000 4.137640 0.000000 0.000000 -0.000000 4.137640"
Au       0.009550102732200      0.089834217009452      0.048338033807443
Au       0.008404497238467      2.027038933195493      1.867292417899944
Au       2.127054824701642     -0.071879644564640      2.288301968027816
Au       2.028539577787989      2.128555514314810     -0.030383369319378
4
q [0.0, 0.0, 0.0] , b 4 , f 0.383434 , div 15 / 20 (generated by Phonopy) Lattice="4.137640 0.000000 0.000000 -0.000000 4.137640 0.000000 0.000000 -0.000000 4.137640"
Au       0.009579580255444      0.093995294264664      0.050363622911042
Au       0.008375019661206      2.024426798908429      1.856459373927868
Au       2.129589731318456     -0.076040721864462      2.299135011982644
Au       2.026004671184824      2.131167648658090     -0.032408958364895
4
q [0.0, 0.0, 0.0] , b 4 , f 0.383434 , div 16 / 20 (generated by Phonopy) Lattice="4.137640 0.000000 0.000000 -0.000000 4.137640 0.000000 0.000000 -0.000000 4.137640"
Au       0.009550102732200      0.089834217009452      0.048338033807443
Au       0.008404497238467      2.027038933195493      1.867292417899944
Au       2.127054824701642     -0.071879644564640      2.288301968027817
Au       2.028539577787989      2.128555514314810     -0.030383369319378
4
q [0.0, 0.0, 0.0] , b 4 , f 0.383434 , div 17 / 20 (generated by Phonopy) Lattice="4.137640 0.000000 0.000000 -0.000000 4.137640 0.000000 0.000000 -0.000000 4.137640"
Au       0.009464555627824      0.077758300477485      0.042459545271215
Au       0.008490044499607      2.034619642152860      1.898731135993931
Au       2.119698239172588     -0.059803727903212      2.256863249983887
Au       2.035896163277433      2.120974805194300     -0.024504880951713
4
q [0.0, 0.0, 0.0] , b 4 , f 0.383434 , div 18 / 20 (generated by Phonopy) Lattice="4.137640 0.000000 0.000000 -0.000000 4.137640 0.000000 0.000000 -0.000000 4.137640"
Au       0.009331312888935      0.058949619516771      0.033303584718123
Au       0.008623287482660      2.046426873169877      1.947698087436358
Au       2.108240088579222     -0.040995046740857      2.207896298619426
Au       2.047354313809104      2.109167573923180     -0.015348920661163
4
q [0.0, 0.0, 0.0] , b 4 , f 0.383434 , div 19 / 20 (generated by Phonopy) Lattice="4.137640 0.000000 0.000000 -0.000000 4.137640 0.000000 0.000000 -0.000000 4.137640"
Au       0.009163417243171      0.035249298867531      0.021766401360431
Au       0.008791183436089      2.061304852208782      2.009400045847231
Au       2.093801976535253     -0.017294725837534      2.146194340306797
Au       2.061792425775333      2.094289594564088     -0.003811737634294
