generated by phonopy
   1.0
    22.8580159908993785    0.0000000000000000    0.0000000000000000
   -11.4290079954496875   19.7956225282035234    0.0000000000000000
     0.0000000000000000    0.0000000000000000   14.1443037004609362
Ti
 375
Direct
  0.9998612619885221  0.9999075079923481  0.9999075079923480
  0.1998612619885222  0.9999075079923481  0.9999075079923480
  0.3998612619885221  0.9999075079923481  0.9999075079923480
  0.5998612619885221  0.9999075079923481  0.9999075079923480
  0.7998612619885223  0.9999075079923481  0.9999075079923480
  0.9998612619885221  0.1999075079923481  0.9999075079923480
  0.1998612619885221  0.1999075079923481  0.9999075079923480
  0.3998612619885221  0.1999075079923481  0.9999075079923480
  0.5998612619885222  0.1999075079923481  0.9999075079923480
  0.7998612619885223  0.1999075079923481  0.9999075079923480
  0.9998612619885220  0.3999075079923481  0.9999075079923480
  0.1998612619885221  0.3999075079923481  0.9999075079923480
  0.3998612619885221  0.3999075079923481  0.9999075079923480
  0.5998612619885221  0.3999075079923481  0.9999075079923480
  0.7998612619885223  0.3999075079923481  0.9999075079923480
  0.9998612619885221  0.5999075079923482  0.9999075079923480
  0.1998612619885221  0.5999075079923482  0.9999075079923480
  0.3998612619885221  0.5999075079923482  0.9999075079923480
  0.5998612619885221  0.5999075079923482  0.9999075079923480
  0.7998612619885223  0.5999075079923482  0.9999075079923480
  0.9998612619885220  0.7999075079923482  0.9999075079923480
  0.1998612619885221  0.7999075079923482  0.9999075079923480
  0.3998612619885221  0.7999075079923482  0.9999075079923480
  0.5998612619885221  0.7999075079923482  0.9999075079923480
  0.7998612619885223  0.7999075079923482  0.9999075079923480
  0.9998612619885221  0.9999075079923481  0.1999075079923481
  0.1998612619885222  0.9999075079923481  0.1999075079923481
  0.3998612619885221  0.9999075079923481  0.1999075079923481
  0.5998612619885221  0.9999075079923481  0.1999075079923481
  0.7998612619885223  0.9999075079923481  0.1999075079923481
  0.9998612619885221  0.1999075079923481  0.1999075079923481
  0.1998612619885221  0.1999075079923481  0.1999075079923481
  0.3998612619885221  0.1999075079923481  0.1999075079923481
  0.5998612619885222  0.1999075079923481  0.1999075079923481
  0.7998612619885223  0.1999075079923481  0.1999075079923481
  0.9998612619885220  0.3999075079923481  0.1999075079923481
  0.1998612619885221  0.3999075079923481  0.1999075079923481
  0.3998612619885221  0.3999075079923481  0.1999075079923481
  0.5998612619885221  0.3999075079923481  0.1999075079923481
  0.7998612619885223  0.3999075079923481  0.1999075079923481
  0.9998612619885221  0.5999075079923482  0.1999075079923481
  0.1998612619885221  0.5999075079923482  0.1999075079923481
  0.3998612619885221  0.5999075079923482  0.1999075079923481
  0.5998612619885221  0.5999075079923482  0.1999075079923481
  0.7998612619885223  0.5999075079923482  0.1999075079923481
  0.9998612619885220  0.7999075079923482  0.1999075079923481
  0.1998612619885221  0.7999075079923482  0.1999075079923481
  0.3998612619885221  0.7999075079923482  0.1999075079923481
  0.5998612619885221  0.7999075079923482  0.1999075079923481
  0.7998612619885223  0.7999075079923482  0.1999075079923481
  0.9998612619885221  0.9999075079923481  0.3999075079923481
  0.1998612619885222  0.9999075079923481  0.3999075079923481
  0.3998612619885221  0.9999075079923481  0.3999075079923481
  0.5998612619885221  0.9999075079923481  0.3999075079923481
  0.7998612619885223  0.9999075079923481  0.3999075079923481
  0.9998612619885221  0.1999075079923481  0.3999075079923481
  0.1998612619885221  0.1999075079923481  0.3999075079923481
  0.3998612619885221  0.1999075079923481  0.3999075079923481
  0.5998612619885222  0.1999075079923481  0.3999075079923481
  0.7998612619885223  0.1999075079923481  0.3999075079923481
  0.9998612619885220  0.3999075079923481  0.3999075079923481
  0.1998612619885221  0.3999075079923481  0.3999075079923481
  0.3998612619885221  0.3999075079923481  0.3999075079923481
  0.5998612619885221  0.3999075079923481  0.3999075079923481
  0.7998612619885223  0.3999075079923481  0.3999075079923481
  0.9998612619885221  0.5999075079923482  0.3999075079923481
  0.1998612619885221  0.5999075079923482  0.3999075079923481
  0.3998612619885221  0.5999075079923482  0.3999075079923481
  0.5998612619885221  0.5999075079923482  0.3999075079923481
  0.7998612619885223  0.5999075079923482  0.3999075079923481
  0.9998612619885220  0.7999075079923482  0.3999075079923481
  0.1998612619885221  0.7999075079923482  0.3999075079923481
  0.3998612619885221  0.7999075079923482  0.3999075079923481
  0.5998612619885221  0.7999075079923482  0.3999075079923481
  0.7998612619885223  0.7999075079923482  0.3999075079923481
  0.9998612619885221  0.9999075079923481  0.5999075079923480
  0.1998612619885222  0.9999075079923481  0.5999075079923480
  0.3998612619885221  0.9999075079923481  0.5999075079923480
  0.5998612619885221  0.9999075079923481  0.5999075079923480
  0.7998612619885223  0.9999075079923481  0.5999075079923480
  0.9998612619885221  0.1999075079923481  0.5999075079923480
  0.1998612619885221  0.1999075079923481  0.5999075079923480
  0.3998612619885221  0.1999075079923481  0.5999075079923480
  0.5998612619885222  0.1999075079923481  0.5999075079923480
  0.7998612619885223  0.1999075079923481  0.5999075079923480
  0.9998612619885220  0.3999075079923481  0.5999075079923480
  0.1998612619885221  0.3999075079923481  0.5999075079923480
  0.3998612619885221  0.3999075079923481  0.5999075079923480
  0.5998612619885221  0.3999075079923481  0.5999075079923480
  0.7998612619885223  0.3999075079923481  0.5999075079923480
  0.9998612619885221  0.5999075079923482  0.5999075079923480
  0.1998612619885221  0.5999075079923482  0.5999075079923480
  0.3998612619885221  0.5999075079923482  0.5999075079923480
  0.5998612619885221  0.5999075079923482  0.5999075079923480
  0.7998612619885223  0.5999075079923482  0.5999075079923480
  0.9998612619885220  0.7999075079923482  0.5999075079923480
  0.1998612619885221  0.7999075079923482  0.5999075079923480
  0.3998612619885221  0.7999075079923482  0.5999075079923480
  0.5998612619885221  0.7999075079923482  0.5999075079923480
  0.7998612619885223  0.7999075079923482  0.5999075079923480
  0.9998612619885221  0.9999075079923481  0.7999075079923480
  0.1998612619885222  0.9999075079923481  0.7999075079923480
  0.3998612619885221  0.9999075079923481  0.7999075079923480
  0.5998612619885221  0.9999075079923481  0.7999075079923480
  0.7998612619885223  0.9999075079923481  0.7999075079923480
  0.9998612619885221  0.1999075079923481  0.7999075079923480
  0.1998612619885221  0.1999075079923481  0.7999075079923480
  0.3998612619885221  0.1999075079923481  0.7999075079923480
  0.5998612619885222  0.1999075079923481  0.7999075079923480
  0.7998612619885223  0.1999075079923481  0.7999075079923480
  0.9998612619885220  0.3999075079923481  0.7999075079923480
  0.1998612619885221  0.3999075079923481  0.7999075079923480
  0.3998612619885221  0.3999075079923481  0.7999075079923480
  0.5998612619885221  0.3999075079923481  0.7999075079923480
  0.7998612619885223  0.3999075079923481  0.7999075079923480
  0.9998612619885221  0.5999075079923482  0.7999075079923480
  0.1998612619885221  0.5999075079923482  0.7999075079923480
  0.3998612619885221  0.5999075079923482  0.7999075079923480
  0.5998612619885221  0.5999075079923482  0.7999075079923480
  0.7998612619885223  0.5999075079923482  0.7999075079923480
  0.9998612619885220  0.7999075079923482  0.7999075079923480
  0.1998612619885221  0.7999075079923482  0.7999075079923480
  0.3998612619885221  0.7999075079923482  0.7999075079923480
  0.5998612619885221  0.7999075079923482  0.7999075079923480
  0.7998612619885223  0.7999075079923482  0.7999075079923480
  0.0702481260177519  0.1332408413255541  0.1036277053549749
  0.2665279286551251  0.1332408413255541  0.0999075079923481
  0.4665279286551251  0.1332408413255541  0.0999075079923481
  0.6665279286551251  0.1332408413255541  0.0999075079923481
  0.8665279286551252  0.1332408413255541  0.0999075079923481
  0.0665279286551251  0.3332408413255541  0.0999075079923481
  0.2665279286551251  0.3332408413255541  0.0999075079923481
  0.4665279286551252  0.3332408413255541  0.0999075079923481
  0.6665279286551250  0.3332408413255541  0.0999075079923481
  0.8665279286551252  0.3332408413255541  0.0999075079923481
  0.0665279286551251  0.5332408413255542  0.0999075079923481
  0.2665279286551251  0.5332408413255542  0.0999075079923481
  0.4665279286551251  0.5332408413255542  0.0999075079923481
  0.6665279286551250  0.5332408413255542  0.0999075079923481
  0.8665279286551252  0.5332408413255542  0.0999075079923481
  0.0665279286551251  0.7332408413255541  0.0999075079923481
  0.2665279286551251  0.7332408413255541  0.0999075079923481
  0.4665279286551251  0.7332408413255541  0.0999075079923481
  0.6665279286551250  0.7332408413255541  0.0999075079923481
  0.8665279286551252  0.7332408413255541  0.0999075079923481
  0.0665279286551251  0.9332408413255542  0.0999075079923481
  0.2665279286551251  0.9332408413255542  0.0999075079923481
  0.4665279286551251  0.9332408413255542  0.0999075079923481
  0.6665279286551250  0.9332408413255542  0.0999075079923481
  0.8665279286551252  0.9332408413255542  0.0999075079923481
  0.0665279286551251  0.1332408413255541  0.2999075079923481
  0.2665279286551251  0.1332408413255541  0.2999075079923481
  0.4665279286551251  0.1332408413255541  0.2999075079923481
  0.6665279286551251  0.1332408413255541  0.2999075079923481
  0.8665279286551252  0.1332408413255541  0.2999075079923481
  0.0665279286551251  0.3332408413255541  0.2999075079923481
  0.2665279286551251  0.3332408413255541  0.2999075079923481
  0.4665279286551252  0.3332408413255541  0.2999075079923481
  0.6665279286551250  0.3332408413255541  0.2999075079923481
  0.8665279286551252  0.3332408413255541  0.2999075079923481
  0.0665279286551251  0.5332408413255542  0.2999075079923481
  0.2665279286551251  0.5332408413255542  0.2999075079923481
  0.4665279286551251  0.5332408413255542  0.2999075079923481
  0.6665279286551250  0.5332408413255542  0.2999075079923481
  0.8665279286551252  0.5332408413255542  0.2999075079923481
  0.0665279286551251  0.7332408413255541  0.2999075079923481
  0.2665279286551251  0.7332408413255541  0.2999075079923481
  0.4665279286551251  0.7332408413255541  0.2999075079923481
  0.6665279286551250  0.7332408413255541  0.2999075079923481
  0.8665279286551252  0.7332408413255541  0.2999075079923481
  0.0665279286551251  0.9332408413255542  0.2999075079923481
  0.2665279286551251  0.9332408413255542  0.2999075079923481
  0.4665279286551251  0.9332408413255542  0.2999075079923481
  0.6665279286551250  0.9332408413255542  0.2999075079923481
  0.8665279286551252  0.9332408413255542  0.2999075079923481
  0.0665279286551251  0.1332408413255541  0.4999075079923480
  0.2665279286551251  0.1332408413255541  0.4999075079923480
  0.4665279286551251  0.1332408413255541  0.4999075079923480
  0.6665279286551251  0.1332408413255541  0.4999075079923480
  0.8665279286551252  0.1332408413255541  0.4999075079923480
  0.0665279286551251  0.3332408413255541  0.4999075079923480
  0.2665279286551251  0.3332408413255541  0.4999075079923480
  0.4665279286551252  0.3332408413255541  0.4999075079923480
  0.6665279286551250  0.3332408413255541  0.4999075079923480
  0.8665279286551252  0.3332408413255541  0.4999075079923480
  0.0665279286551251  0.5332408413255542  0.4999075079923480
  0.2665279286551251  0.5332408413255542  0.4999075079923480
  0.4665279286551251  0.5332408413255542  0.4999075079923480
  0.6665279286551250  0.5332408413255542  0.4999075079923480
  0.8665279286551252  0.5332408413255542  0.4999075079923480
  0.0665279286551251  0.7332408413255541  0.4999075079923480
  0.2665279286551251  0.7332408413255541  0.4999075079923480
  0.4665279286551251  0.7332408413255541  0.4999075079923480
  0.6665279286551250  0.7332408413255541  0.4999075079923480
  0.8665279286551252  0.7332408413255541  0.4999075079923480
  0.0665279286551251  0.9332408413255542  0.4999075079923480
  0.2665279286551251  0.9332408413255542  0.4999075079923480
  0.4665279286551251  0.9332408413255542  0.4999075079923480
  0.6665279286551250  0.9332408413255542  0.4999075079923480
  0.8665279286551252  0.9332408413255542  0.4999075079923480
  0.0665279286551251  0.1332408413255541  0.6999075079923480
  0.2665279286551251  0.1332408413255541  0.6999075079923480
  0.4665279286551251  0.1332408413255541  0.6999075079923480
  0.6665279286551251  0.1332408413255541  0.6999075079923480
  0.8665279286551252  0.1332408413255541  0.6999075079923480
  0.0665279286551251  0.3332408413255541  0.6999075079923480
  0.2665279286551251  0.3332408413255541  0.6999075079923480
  0.4665279286551252  0.3332408413255541  0.6999075079923480
  0.6665279286551250  0.3332408413255541  0.6999075079923480
  0.8665279286551252  0.3332408413255541  0.6999075079923480
  0.0665279286551251  0.5332408413255542  0.6999075079923480
  0.2665279286551251  0.5332408413255542  0.6999075079923480
  0.4665279286551251  0.5332408413255542  0.6999075079923480
  0.6665279286551250  0.5332408413255542  0.6999075079923480
  0.8665279286551252  0.5332408413255542  0.6999075079923480
  0.0665279286551251  0.7332408413255541  0.6999075079923480
  0.2665279286551251  0.7332408413255541  0.6999075079923480
  0.4665279286551251  0.7332408413255541  0.6999075079923480
  0.6665279286551250  0.7332408413255541  0.6999075079923480
  0.8665279286551252  0.7332408413255541  0.6999075079923480
  0.0665279286551251  0.9332408413255542  0.6999075079923480
  0.2665279286551251  0.9332408413255542  0.6999075079923480
  0.4665279286551251  0.9332408413255542  0.6999075079923480
  0.6665279286551250  0.9332408413255542  0.6999075079923480
  0.8665279286551252  0.9332408413255542  0.6999075079923480
  0.0665279286551251  0.1332408413255541  0.8999075079923481
  0.2665279286551251  0.1332408413255541  0.8999075079923481
  0.4665279286551251  0.1332408413255541  0.8999075079923481
  0.6665279286551251  0.1332408413255541  0.8999075079923481
  0.8665279286551252  0.1332408413255541  0.8999075079923481
  0.0665279286551251  0.3332408413255541  0.8999075079923481
  0.2665279286551251  0.3332408413255541  0.8999075079923481
  0.4665279286551252  0.3332408413255541  0.8999075079923481
  0.6665279286551250  0.3332408413255541  0.8999075079923481
  0.8665279286551252  0.3332408413255541  0.8999075079923481
  0.0665279286551251  0.5332408413255542  0.8999075079923481
  0.2665279286551251  0.5332408413255542  0.8999075079923481
  0.4665279286551251  0.5332408413255542  0.8999075079923481
  0.6665279286551250  0.5332408413255542  0.8999075079923481
  0.8665279286551252  0.5332408413255542  0.8999075079923481
  0.0665279286551251  0.7332408413255541  0.8999075079923481
  0.2665279286551251  0.7332408413255541  0.8999075079923481
  0.4665279286551251  0.7332408413255541  0.8999075079923481
  0.6665279286551250  0.7332408413255541  0.8999075079923481
  0.8665279286551252  0.7332408413255541  0.8999075079923481
  0.0665279286551251  0.9332408413255542  0.8999075079923481
  0.2665279286551251  0.9332408413255542  0.8999075079923481
  0.4665279286551251  0.9332408413255542  0.8999075079923481
  0.6665279286551250  0.9332408413255542  0.8999075079923481
  0.8665279286551252  0.9332408413255542  0.8999075079923481
  0.1331945953219192  0.0665741746591421  0.0999075079923481
  0.3331945953219193  0.0665741746591421  0.0999075079923481
  0.5331945953219190  0.0665741746591421  0.0999075079923481
  0.7331945953219192  0.0665741746591421  0.0999075079923481
  0.9331945953219192  0.0665741746591421  0.0999075079923481
  0.1331945953219192  0.2665741746591421  0.0999075079923481
  0.3331945953219192  0.2665741746591421  0.0999075079923481
  0.5331945953219192  0.2665741746591421  0.0999075079923481
  0.7331945953219192  0.2665741746591421  0.0999075079923481
  0.9331945953219192  0.2665741746591421  0.0999075079923481
  0.1331945953219192  0.4665741746591421  0.0999075079923481
  0.3331945953219192  0.4665741746591421  0.0999075079923481
  0.5331945953219190  0.4665741746591421  0.0999075079923481
  0.7331945953219191  0.4665741746591421  0.0999075079923481
  0.9331945953219191  0.4665741746591421  0.0999075079923481
  0.1331945953219192  0.6665741746591421  0.0999075079923481
  0.3331945953219192  0.6665741746591421  0.0999075079923481
  0.5331945953219190  0.6665741746591421  0.0999075079923481
  0.7331945953219192  0.6665741746591421  0.0999075079923481
  0.9331945953219192  0.6665741746591421  0.0999075079923481
  0.1331945953219192  0.8665741746591422  0.0999075079923481
  0.3331945953219192  0.8665741746591422  0.0999075079923481
  0.5331945953219190  0.8665741746591422  0.0999075079923481
  0.7331945953219192  0.8665741746591422  0.0999075079923481
  0.9331945953219192  0.8665741746591422  0.0999075079923481
  0.1331945953219192  0.0665741746591421  0.2999075079923481
  0.3331945953219193  0.0665741746591421  0.2999075079923481
  0.5331945953219190  0.0665741746591421  0.2999075079923481
  0.7331945953219192  0.0665741746591421  0.2999075079923481
  0.9331945953219192  0.0665741746591421  0.2999075079923481
  0.1331945953219192  0.2665741746591421  0.2999075079923481
  0.3331945953219192  0.2665741746591421  0.2999075079923481
  0.5331945953219192  0.2665741746591421  0.2999075079923481
  0.7331945953219192  0.2665741746591421  0.2999075079923481
  0.9331945953219192  0.2665741746591421  0.2999075079923481
  0.1331945953219192  0.4665741746591421  0.2999075079923481
  0.3331945953219192  0.4665741746591421  0.2999075079923481
  0.5331945953219190  0.4665741746591421  0.2999075079923481
  0.7331945953219191  0.4665741746591421  0.2999075079923481
  0.9331945953219191  0.4665741746591421  0.2999075079923481
  0.1331945953219192  0.6665741746591421  0.2999075079923481
  0.3331945953219192  0.6665741746591421  0.2999075079923481
  0.5331945953219190  0.6665741746591421  0.2999075079923481
  0.7331945953219192  0.6665741746591421  0.2999075079923481
  0.9331945953219192  0.6665741746591421  0.2999075079923481
  0.1331945953219192  0.8665741746591422  0.2999075079923481
  0.3331945953219192  0.8665741746591422  0.2999075079923481
  0.5331945953219190  0.8665741746591422  0.2999075079923481
  0.7331945953219192  0.8665741746591422  0.2999075079923481
  0.9331945953219192  0.8665741746591422  0.2999075079923481
  0.1331945953219192  0.0665741746591421  0.4999075079923480
  0.3331945953219193  0.0665741746591421  0.4999075079923480
  0.5331945953219190  0.0665741746591421  0.4999075079923480
  0.7331945953219192  0.0665741746591421  0.4999075079923480
  0.9331945953219192  0.0665741746591421  0.4999075079923480
  0.1331945953219192  0.2665741746591421  0.4999075079923480
  0.3331945953219192  0.2665741746591421  0.4999075079923480
  0.5331945953219192  0.2665741746591421  0.4999075079923480
  0.7331945953219192  0.2665741746591421  0.4999075079923480
  0.9331945953219192  0.2665741746591421  0.4999075079923480
  0.1331945953219192  0.4665741746591421  0.4999075079923480
  0.3331945953219192  0.4665741746591421  0.4999075079923480
  0.5331945953219190  0.4665741746591421  0.4999075079923480
  0.7331945953219191  0.4665741746591421  0.4999075079923480
  0.9331945953219191  0.4665741746591421  0.4999075079923480
  0.1331945953219192  0.6665741746591421  0.4999075079923480
  0.3331945953219192  0.6665741746591421  0.4999075079923480
  0.5331945953219190  0.6665741746591421  0.4999075079923480
  0.7331945953219192  0.6665741746591421  0.4999075079923480
  0.9331945953219192  0.6665741746591421  0.4999075079923480
  0.1331945953219192  0.8665741746591422  0.4999075079923480
  0.3331945953219192  0.8665741746591422  0.4999075079923480
  0.5331945953219190  0.8665741746591422  0.4999075079923480
  0.7331945953219192  0.8665741746591422  0.4999075079923480
  0.9331945953219192  0.8665741746591422  0.4999075079923480
  0.1331945953219192  0.0665741746591421  0.6999075079923480
  0.3331945953219193  0.0665741746591421  0.6999075079923480
  0.5331945953219190  0.0665741746591421  0.6999075079923480
  0.7331945953219192  0.0665741746591421  0.6999075079923480
  0.9331945953219192  0.0665741746591421  0.6999075079923480
  0.1331945953219192  0.2665741746591421  0.6999075079923480
  0.3331945953219192  0.2665741746591421  0.6999075079923480
  0.5331945953219192  0.2665741746591421  0.6999075079923480
  0.7331945953219192  0.2665741746591421  0.6999075079923480
  0.9331945953219192  0.2665741746591421  0.6999075079923480
  0.1331945953219192  0.4665741746591421  0.6999075079923480
  0.3331945953219192  0.4665741746591421  0.6999075079923480
  0.5331945953219190  0.4665741746591421  0.6999075079923480
  0.7331945953219191  0.4665741746591421  0.6999075079923480
  0.9331945953219191  0.4665741746591421  0.6999075079923480
  0.1331945953219192  0.6665741746591421  0.6999075079923480
  0.3331945953219192  0.6665741746591421  0.6999075079923480
  0.5331945953219190  0.6665741746591421  0.6999075079923480
  0.7331945953219192  0.6665741746591421  0.6999075079923480
  0.9331945953219192  0.6665741746591421  0.6999075079923480
  0.1331945953219192  0.8665741746591422  0.6999075079923480
  0.3331945953219192  0.8665741746591422  0.6999075079923480
  0.5331945953219190  0.8665741746591422  0.6999075079923480
  0.7331945953219192  0.8665741746591422  0.6999075079923480
  0.9331945953219192  0.8665741746591422  0.6999075079923480
  0.1331945953219192  0.0665741746591421  0.8999075079923481
  0.3331945953219193  0.0665741746591421  0.8999075079923481
  0.5331945953219190  0.0665741746591421  0.8999075079923481
  0.7331945953219192  0.0665741746591421  0.8999075079923481
  0.9331945953219192  0.0665741746591421  0.8999075079923481
  0.1331945953219192  0.2665741746591421  0.8999075079923481
  0.3331945953219192  0.2665741746591421  0.8999075079923481
  0.5331945953219192  0.2665741746591421  0.8999075079923481
  0.7331945953219192  0.2665741746591421  0.8999075079923481
  0.9331945953219192  0.2665741746591421  0.8999075079923481
  0.1331945953219192  0.4665741746591421  0.8999075079923481
  0.3331945953219192  0.4665741746591421  0.8999075079923481
  0.5331945953219190  0.4665741746591421  0.8999075079923481
  0.7331945953219191  0.4665741746591421  0.8999075079923481
  0.9331945953219191  0.4665741746591421  0.8999075079923481
  0.1331945953219192  0.6665741746591421  0.8999075079923481
  0.3331945953219192  0.6665741746591421  0.8999075079923481
  0.5331945953219190  0.6665741746591421  0.8999075079923481
  0.7331945953219192  0.6665741746591421  0.8999075079923481
  0.9331945953219192  0.6665741746591421  0.8999075079923481
  0.1331945953219192  0.8665741746591422  0.8999075079923481
  0.3331945953219192  0.8665741746591422  0.8999075079923481
  0.5331945953219190  0.8665741746591422  0.8999075079923481
  0.7331945953219192  0.8665741746591422  0.8999075079923481
  0.9331945953219192  0.8665741746591422  0.8999075079923481
