generated by phonopy
   1.0
     8.5759383374072886    0.0000000000000000    0.0000000000000000
    -4.2879691685575825    7.4269804614673980    0.0000000000000000
     0.0000000000000000    0.0000000000000000   13.5569926743006448
Au
  54
Direct
  0.1240862940163657  0.2267165298770025  0.0940613624157835
  0.4511859059218797  0.2267165298770025  0.0878276409879642
  0.7845192392552131  0.2267165298770025  0.0878276409879642
  0.1178525725885465  0.5600498632103358  0.0878276409879642
  0.4511859059218797  0.5600498632103358  0.0878276409879642
  0.7845192392552131  0.5600498632103358  0.0878276409879642
  0.1178525725885465  0.8933831965436690  0.0878276409879642
  0.4511859059218797  0.8933831965436690  0.0878276409879642
  0.7845192392552129  0.8933831965436690  0.0878276409879642
  0.1178525725885465  0.2267165298770025  0.4211609743212975
  0.4511859059218797  0.2267165298770025  0.4211609743212975
  0.7845192392552131  0.2267165298770025  0.4211609743212975
  0.1178525725885465  0.5600498632103358  0.4211609743212975
  0.4511859059218797  0.5600498632103358  0.4211609743212975
  0.7845192392552131  0.5600498632103358  0.4211609743212975
  0.1178525725885465  0.8933831965436690  0.4211609743212975
  0.4511859059218797  0.8933831965436690  0.4211609743212975
  0.7845192392552129  0.8933831965436690  0.4211609743212975
  0.1178525725885465  0.2267165298770025  0.7544943076546309
  0.4511859059218797  0.2267165298770025  0.7544943076546309
  0.7845192392552131  0.2267165298770025  0.7544943076546309
  0.1178525725885465  0.5600498632103358  0.7544943076546309
  0.4511859059218797  0.5600498632103358  0.7544943076546309
  0.7845192392552131  0.5600498632103358  0.7544943076546309
  0.1178525725885465  0.8933831965436690  0.7544943076546309
  0.4511859059218797  0.8933831965436690  0.7544943076546309
  0.7845192392552129  0.8933831965436690  0.7544943076546309
  0.2289636836971732  0.1156054187655928  0.2544943076546312
  0.5622970170305064  0.1156054187655928  0.2544943076546312
  0.8956303503638398  0.1156054187655928  0.2544943076546312
  0.2289636836971731  0.4489387520989261  0.2544943076546312
  0.5622970170305065  0.4489387520989261  0.2544943076546312
  0.8956303503638399  0.4489387520989261  0.2544943076546312
  0.2289636836971731  0.7822720854322595  0.2544943076546312
  0.5622970170305065  0.7822720854322595  0.2544943076546312
  0.8956303503638399  0.7822720854322595  0.2544943076546312
  0.2289636836971732  0.1156054187655928  0.5878276409879645
  0.5622970170305064  0.1156054187655928  0.5878276409879645
  0.8956303503638398  0.1156054187655928  0.5878276409879645
  0.2289636836971731  0.4489387520989261  0.5878276409879645
  0.5622970170305065  0.4489387520989261  0.5878276409879645
  0.8956303503638399  0.4489387520989261  0.5878276409879645
  0.2289636836971731  0.7822720854322595  0.5878276409879645
  0.5622970170305065  0.7822720854322595  0.5878276409879645
  0.8956303503638399  0.7822720854322595  0.5878276409879645
  0.2289636836971732  0.1156054187655928  0.9211609743212977
  0.5622970170305064  0.1156054187655928  0.9211609743212977
  0.8956303503638398  0.1156054187655928  0.9211609743212977
  0.2289636836971731  0.4489387520989261  0.9211609743212977
  0.5622970170305065  0.4489387520989261  0.9211609743212977
  0.8956303503638399  0.4489387520989261  0.9211609743212977
  0.2289636836971731  0.7822720854322595  0.9211609743212977
  0.5622970170305065  0.7822720854322595  0.9211609743212977
  0.8956303503638399  0.7822720854322595  0.9211609743212977
