Au
 1.0000000000000000
     2.8586461124690961    0.0000000000000000    0.0000000000000000
    -1.4293230561858608    2.4756601538224658    0.0000000000000000
     0.0000000000000000    0.0000000000000000    4.5189975581002146
 Au 
   2
Direct
  0.3535577177656395  0.6801495896310076  0.2634829229638927
  0.6868910510915195  0.3468162562967784  0.7634829229638935
