generated by phonopy
   1.0
    14.3267781599999999    0.0000000000000000    0.0000000000000000
     0.0000000000000000   14.3267781599999999    0.0000000000000000
     0.0000000000000000    0.0000000000000000   14.3267781599999999
Zr
 128
Direct
  0.0069799363739153  0.0000000000000000  0.0000000000000000
  0.2500000000000000  0.0000000000000000  0.0000000000000000
  0.5000000000000000  0.0000000000000000  0.0000000000000000
  0.7499999999999999  0.0000000000000000  0.0000000000000000
  0.0000000000000000  0.2500000000000000  0.0000000000000000
  0.2500000000000000  0.2500000000000000  0.0000000000000000
  0.5000000000000000  0.2500000000000000  0.0000000000000000
  0.7499999999999999  0.2500000000000000  0.0000000000000000
  0.0000000000000000  0.5000000000000000  0.0000000000000000
  0.2500000000000000  0.5000000000000000  0.0000000000000000
  0.5000000000000000  0.5000000000000000  0.0000000000000000
  0.7499999999999999  0.5000000000000000  0.0000000000000000
  0.0000000000000000  0.7499999999999999  0.0000000000000000
  0.2500000000000000  0.7499999999999999  0.0000000000000000
  0.5000000000000000  0.7499999999999999  0.0000000000000000
  0.7499999999999999  0.7499999999999999  0.0000000000000000
  0.0000000000000000  0.0000000000000000  0.2500000000000000
  0.2500000000000000  0.0000000000000000  0.2500000000000000
  0.5000000000000000  0.0000000000000000  0.2500000000000000
  0.7499999999999999  0.0000000000000000  0.2500000000000000
  0.0000000000000000  0.2500000000000000  0.2500000000000000
  0.2500000000000000  0.2500000000000000  0.2500000000000000
  0.5000000000000000  0.2500000000000000  0.2500000000000000
  0.7499999999999999  0.2500000000000000  0.2500000000000000
  0.0000000000000000  0.5000000000000000  0.2500000000000000
  0.2500000000000000  0.5000000000000000  0.2500000000000000
  0.5000000000000000  0.5000000000000000  0.2500000000000000
  0.7499999999999999  0.5000000000000000  0.2500000000000000
  0.0000000000000000  0.7499999999999999  0.2500000000000000
  0.2500000000000000  0.7499999999999999  0.2500000000000000
  0.5000000000000000  0.7499999999999999  0.2500000000000000
  0.7499999999999999  0.7499999999999999  0.2500000000000000
  0.0000000000000000  0.0000000000000000  0.5000000000000000
  0.2500000000000000  0.0000000000000000  0.5000000000000000
  0.5000000000000000  0.0000000000000000  0.5000000000000000
  0.7499999999999999  0.0000000000000000  0.5000000000000000
  0.0000000000000000  0.2500000000000000  0.5000000000000000
  0.2500000000000000  0.2500000000000000  0.5000000000000000
  0.5000000000000000  0.2500000000000000  0.5000000000000000
  0.7499999999999999  0.2500000000000000  0.5000000000000000
  0.0000000000000000  0.5000000000000000  0.5000000000000000
  0.2500000000000000  0.5000000000000000  0.5000000000000000
  0.5000000000000000  0.5000000000000000  0.5000000000000000
  0.7499999999999999  0.5000000000000000  0.5000000000000000
  0.0000000000000000  0.7499999999999999  0.5000000000000000
  0.2500000000000000  0.7499999999999999  0.5000000000000000
  0.5000000000000000  0.7499999999999999  0.5000000000000000
  0.7499999999999999  0.7499999999999999  0.5000000000000000
  0.0000000000000000  0.0000000000000000  0.7499999999999999
  0.2500000000000000  0.0000000000000000  0.7499999999999999
  0.5000000000000000  0.0000000000000000  0.7499999999999999
  0.7499999999999999  0.0000000000000000  0.7499999999999999
  0.0000000000000000  0.2500000000000000  0.7499999999999999
  0.2500000000000000  0.2500000000000000  0.7499999999999999
  0.5000000000000000  0.2500000000000000  0.7499999999999999
  0.7499999999999999  0.2500000000000000  0.7499999999999999
  0.0000000000000000  0.5000000000000000  0.7499999999999999
  0.2500000000000000  0.5000000000000000  0.7499999999999999
  0.5000000000000000  0.5000000000000000  0.7499999999999999
  0.7499999999999999  0.5000000000000000  0.7499999999999999
  0.0000000000000000  0.7499999999999999  0.7499999999999999
  0.2500000000000000  0.7499999999999999  0.7499999999999999
  0.5000000000000000  0.7499999999999999  0.7499999999999999
  0.7499999999999999  0.7499999999999999  0.7499999999999999
  0.1250000000000000  0.1250000000000000  0.1250000000000000
  0.3749999999999999  0.1250000000000000  0.1250000000000000
  0.6250000000000000  0.1250000000000000  0.1250000000000000
  0.8750000000000000  0.1250000000000000  0.1250000000000000
  0.1250000000000000  0.3749999999999999  0.1250000000000000
  0.3749999999999999  0.3749999999999999  0.1250000000000000
  0.6250000000000000  0.3749999999999999  0.1250000000000000
  0.8750000000000000  0.3749999999999999  0.1250000000000000
  0.1250000000000000  0.6250000000000000  0.1250000000000000
  0.3749999999999999  0.6250000000000000  0.1250000000000000
  0.6250000000000000  0.6250000000000000  0.1250000000000000
  0.8750000000000000  0.6250000000000000  0.1250000000000000
  0.1250000000000000  0.8750000000000000  0.1250000000000000
  0.3749999999999999  0.8750000000000000  0.1250000000000000
  0.6250000000000000  0.8750000000000000  0.1250000000000000
  0.8750000000000000  0.8750000000000000  0.1250000000000000
  0.1250000000000000  0.1250000000000000  0.3749999999999999
  0.3749999999999999  0.1250000000000000  0.3749999999999999
  0.6250000000000000  0.1250000000000000  0.3749999999999999
  0.8750000000000000  0.1250000000000000  0.3749999999999999
  0.1250000000000000  0.3749999999999999  0.3749999999999999
  0.3749999999999999  0.3749999999999999  0.3749999999999999
  0.6250000000000000  0.3749999999999999  0.3749999999999999
  0.8750000000000000  0.3749999999999999  0.3749999999999999
  0.1250000000000000  0.6250000000000000  0.3749999999999999
  0.3749999999999999  0.6250000000000000  0.3749999999999999
  0.6250000000000000  0.6250000000000000  0.3749999999999999
  0.8750000000000000  0.6250000000000000  0.3749999999999999
  0.1250000000000000  0.8750000000000000  0.3749999999999999
  0.3749999999999999  0.8750000000000000  0.3749999999999999
  0.6250000000000000  0.8750000000000000  0.3749999999999999
  0.8750000000000000  0.8750000000000000  0.3749999999999999
  0.1250000000000000  0.1250000000000000  0.6250000000000000
  0.3749999999999999  0.1250000000000000  0.6250000000000000
  0.6250000000000000  0.1250000000000000  0.6250000000000000
  0.8750000000000000  0.1250000000000000  0.6250000000000000
  0.1250000000000000  0.3749999999999999  0.6250000000000000
  0.3749999999999999  0.3749999999999999  0.6250000000000000
  0.6250000000000000  0.3749999999999999  0.6250000000000000
  0.8750000000000000  0.3749999999999999  0.6250000000000000
  0.1250000000000000  0.6250000000000000  0.6250000000000000
  0.3749999999999999  0.6250000000000000  0.6250000000000000
  0.6250000000000000  0.6250000000000000  0.6250000000000000
  0.8750000000000000  0.6250000000000000  0.6250000000000000
  0.1250000000000000  0.8750000000000000  0.6250000000000000
  0.3749999999999999  0.8750000000000000  0.6250000000000000
  0.6250000000000000  0.8750000000000000  0.6250000000000000
  0.8750000000000000  0.8750000000000000  0.6250000000000000
  0.1250000000000000  0.1250000000000000  0.8750000000000000
  0.3749999999999999  0.1250000000000000  0.8750000000000000
  0.6250000000000000  0.1250000000000000  0.8750000000000000
  0.8750000000000000  0.1250000000000000  0.8750000000000000
  0.1250000000000000  0.3749999999999999  0.8750000000000000
  0.3749999999999999  0.3749999999999999  0.8750000000000000
  0.6250000000000000  0.3749999999999999  0.8750000000000000
  0.8750000000000000  0.3749999999999999  0.8750000000000000
  0.1250000000000000  0.6250000000000000  0.8750000000000000
  0.3749999999999999  0.6250000000000000  0.8750000000000000
  0.6250000000000000  0.6250000000000000  0.8750000000000000
  0.8750000000000000  0.6250000000000000  0.8750000000000000
  0.1250000000000000  0.8750000000000000  0.8750000000000000
  0.3749999999999999  0.8750000000000000  0.8750000000000000
  0.6250000000000000  0.8750000000000000  0.8750000000000000
  0.8750000000000000  0.8750000000000000  0.8750000000000000
