generated by phonopy
   1.0
    12.6704721451999998    0.0000000000000000    0.0000000000000000
     0.0000000000000000   12.6704721451999998    0.0000000000000000
     0.0000000000000000    0.0000000000000000   12.6704721451999998
Mo
 128
Direct
  0.0078923657188168  0.0000000000000000  0.0000000000000000
  0.2500000000000000  0.0000000000000000  0.0000000000000000
  0.4999999999999999  0.0000000000000000  0.0000000000000000
  0.7499999999999999  0.0000000000000000  0.0000000000000000
  0.0000000000000000  0.2500000000000000  0.0000000000000000
  0.2500000000000000  0.2500000000000000  0.0000000000000000
  0.4999999999999999  0.2500000000000000  0.0000000000000000
  0.7499999999999999  0.2500000000000000  0.0000000000000000
  0.0000000000000000  0.4999999999999999  0.0000000000000000
  0.2500000000000000  0.4999999999999999  0.0000000000000000
  0.4999999999999999  0.4999999999999999  0.0000000000000000
  0.7499999999999999  0.4999999999999999  0.0000000000000000
  0.0000000000000000  0.7499999999999999  0.0000000000000000
  0.2500000000000000  0.7499999999999999  0.0000000000000000
  0.4999999999999999  0.7499999999999999  0.0000000000000000
  0.7499999999999999  0.7499999999999999  0.0000000000000000
  0.0000000000000000  0.0000000000000000  0.2500000000000000
  0.2500000000000000  0.0000000000000000  0.2500000000000000
  0.4999999999999999  0.0000000000000000  0.2500000000000000
  0.7499999999999999  0.0000000000000000  0.2500000000000000
  0.0000000000000000  0.2500000000000000  0.2500000000000000
  0.2500000000000000  0.2500000000000000  0.2500000000000000
  0.4999999999999999  0.2500000000000000  0.2500000000000000
  0.7499999999999999  0.2500000000000000  0.2500000000000000
  0.0000000000000000  0.4999999999999999  0.2500000000000000
  0.2500000000000000  0.4999999999999999  0.2500000000000000
  0.4999999999999999  0.4999999999999999  0.2500000000000000
  0.7499999999999999  0.4999999999999999  0.2500000000000000
  0.0000000000000000  0.7499999999999999  0.2500000000000000
  0.2500000000000000  0.7499999999999999  0.2500000000000000
  0.4999999999999999  0.7499999999999999  0.2500000000000000
  0.7499999999999999  0.7499999999999999  0.2500000000000000
  0.0000000000000000  0.0000000000000000  0.4999999999999999
  0.2500000000000000  0.0000000000000000  0.4999999999999999
  0.4999999999999999  0.0000000000000000  0.4999999999999999
  0.7499999999999999  0.0000000000000000  0.4999999999999999
  0.0000000000000000  0.2500000000000000  0.4999999999999999
  0.2500000000000000  0.2500000000000000  0.4999999999999999
  0.4999999999999999  0.2500000000000000  0.4999999999999999
  0.7499999999999999  0.2500000000000000  0.4999999999999999
  0.0000000000000000  0.4999999999999999  0.4999999999999999
  0.2500000000000000  0.4999999999999999  0.4999999999999999
  0.4999999999999999  0.4999999999999999  0.4999999999999999
  0.7499999999999999  0.4999999999999999  0.4999999999999999
  0.0000000000000000  0.7499999999999999  0.4999999999999999
  0.2500000000000000  0.7499999999999999  0.4999999999999999
  0.4999999999999999  0.7499999999999999  0.4999999999999999
  0.7499999999999999  0.7499999999999999  0.4999999999999999
  0.0000000000000000  0.0000000000000000  0.7499999999999999
  0.2500000000000000  0.0000000000000000  0.7499999999999999
  0.4999999999999999  0.0000000000000000  0.7499999999999999
  0.7499999999999999  0.0000000000000000  0.7499999999999999
  0.0000000000000000  0.2500000000000000  0.7499999999999999
  0.2500000000000000  0.2500000000000000  0.7499999999999999
  0.4999999999999999  0.2500000000000000  0.7499999999999999
  0.7499999999999999  0.2500000000000000  0.7499999999999999
  0.0000000000000000  0.4999999999999999  0.7499999999999999
  0.2500000000000000  0.4999999999999999  0.7499999999999999
  0.4999999999999999  0.4999999999999999  0.7499999999999999
  0.7499999999999999  0.4999999999999999  0.7499999999999999
  0.0000000000000000  0.7499999999999999  0.7499999999999999
  0.2500000000000000  0.7499999999999999  0.7499999999999999
  0.4999999999999999  0.7499999999999999  0.7499999999999999
  0.7499999999999999  0.7499999999999999  0.7499999999999999
  0.1250000000039462  0.1250000000039462  0.1250000000039462
  0.3750000000039461  0.1250000000039462  0.1250000000039462
  0.6250000000039462  0.1250000000039462  0.1250000000039462
  0.8750000000039461  0.1250000000039462  0.1250000000039462
  0.1250000000039462  0.3750000000039461  0.1250000000039462
  0.3750000000039461  0.3750000000039461  0.1250000000039462
  0.6250000000039462  0.3750000000039461  0.1250000000039462
  0.8750000000039461  0.3750000000039461  0.1250000000039462
  0.1250000000039462  0.6250000000039462  0.1250000000039462
  0.3750000000039461  0.6250000000039462  0.1250000000039462
  0.6250000000039462  0.6250000000039462  0.1250000000039462
  0.8750000000039461  0.6250000000039462  0.1250000000039462
  0.1250000000039462  0.8750000000039461  0.1250000000039462
  0.3750000000039461  0.8750000000039461  0.1250000000039462
  0.6250000000039462  0.8750000000039461  0.1250000000039462
  0.8750000000039461  0.8750000000039461  0.1250000000039462
  0.1250000000039462  0.1250000000039462  0.3750000000039461
  0.3750000000039461  0.1250000000039462  0.3750000000039461
  0.6250000000039462  0.1250000000039462  0.3750000000039461
  0.8750000000039461  0.1250000000039462  0.3750000000039461
  0.1250000000039462  0.3750000000039461  0.3750000000039461
  0.3750000000039461  0.3750000000039461  0.3750000000039461
  0.6250000000039462  0.3750000000039461  0.3750000000039461
  0.8750000000039461  0.3750000000039461  0.3750000000039461
  0.1250000000039462  0.6250000000039462  0.3750000000039461
  0.3750000000039461  0.6250000000039462  0.3750000000039461
  0.6250000000039462  0.6250000000039462  0.3750000000039461
  0.8750000000039461  0.6250000000039462  0.3750000000039461
  0.1250000000039462  0.8750000000039461  0.3750000000039461
  0.3750000000039461  0.8750000000039461  0.3750000000039461
  0.6250000000039462  0.8750000000039461  0.3750000000039461
  0.8750000000039461  0.8750000000039461  0.3750000000039461
  0.1250000000039462  0.1250000000039462  0.6250000000039462
  0.3750000000039461  0.1250000000039462  0.6250000000039462
  0.6250000000039462  0.1250000000039462  0.6250000000039462
  0.8750000000039461  0.1250000000039462  0.6250000000039462
  0.1250000000039462  0.3750000000039461  0.6250000000039462
  0.3750000000039461  0.3750000000039461  0.6250000000039462
  0.6250000000039462  0.3750000000039461  0.6250000000039462
  0.8750000000039461  0.3750000000039461  0.6250000000039462
  0.1250000000039462  0.6250000000039462  0.6250000000039462
  0.3750000000039461  0.6250000000039462  0.6250000000039462
  0.6250000000039462  0.6250000000039462  0.6250000000039462
  0.8750000000039461  0.6250000000039462  0.6250000000039462
  0.1250000000039462  0.8750000000039461  0.6250000000039462
  0.3750000000039461  0.8750000000039461  0.6250000000039462
  0.6250000000039462  0.8750000000039461  0.6250000000039462
  0.8750000000039461  0.8750000000039461  0.6250000000039462
  0.1250000000039462  0.1250000000039462  0.8750000000039461
  0.3750000000039461  0.1250000000039462  0.8750000000039461
  0.6250000000039462  0.1250000000039462  0.8750000000039461
  0.8750000000039461  0.1250000000039462  0.8750000000039461
  0.1250000000039462  0.3750000000039461  0.8750000000039461
  0.3750000000039461  0.3750000000039461  0.8750000000039461
  0.6250000000039462  0.3750000000039461  0.8750000000039461
  0.8750000000039461  0.3750000000039461  0.8750000000039461
  0.1250000000039462  0.6250000000039462  0.8750000000039461
  0.3750000000039461  0.6250000000039462  0.8750000000039461
  0.6250000000039462  0.6250000000039462  0.8750000000039461
  0.8750000000039461  0.6250000000039462  0.8750000000039461
  0.1250000000039462  0.8750000000039461  0.8750000000039461
  0.3750000000039461  0.8750000000039461  0.8750000000039461
  0.6250000000039462  0.8750000000039461  0.8750000000039461
  0.8750000000039461  0.8750000000039461  0.8750000000039461
