generated by phonopy
   1.0
    12.6704721451999998    0.0000000000000000    0.0000000000000000
     0.0000000000000000   12.6704721451999998    0.0000000000000000
     0.0000000000000000    0.0000000000000000   12.6704721451999998
Mo
 128
Direct
  0.0000000000000000  0.0000000000000000  0.0000000000000000
  0.2500000000000000  0.0000000000000000  0.0000000000000000
  0.5000000000000000  0.0000000000000000  0.0000000000000000
  0.7500000000000000  0.0000000000000000  0.0000000000000000
  0.0000000000000000  0.2500000000000000  0.0000000000000000
  0.2500000000000000  0.2500000000000000  0.0000000000000000
  0.5000000000000000  0.2500000000000000  0.0000000000000000
  0.7500000000000000  0.2500000000000000  0.0000000000000000
  0.0000000000000000  0.5000000000000000  0.0000000000000000
  0.2500000000000000  0.5000000000000000  0.0000000000000000
  0.5000000000000000  0.5000000000000000  0.0000000000000000
  0.7500000000000000  0.5000000000000000  0.0000000000000000
  0.0000000000000000  0.7500000000000000  0.0000000000000000
  0.2500000000000000  0.7500000000000000  0.0000000000000000
  0.5000000000000000  0.7500000000000000  0.0000000000000000
  0.7500000000000000  0.7500000000000000  0.0000000000000000
  0.0000000000000000  0.0000000000000000  0.2500000000000000
  0.2500000000000000  0.0000000000000000  0.2500000000000000
  0.5000000000000000  0.0000000000000000  0.2500000000000000
  0.7500000000000000  0.0000000000000000  0.2500000000000000
  0.0000000000000000  0.2500000000000000  0.2500000000000000
  0.2500000000000000  0.2500000000000000  0.2500000000000000
  0.5000000000000000  0.2500000000000000  0.2500000000000000
  0.7500000000000000  0.2500000000000000  0.2500000000000000
  0.0000000000000000  0.5000000000000000  0.2500000000000000
  0.2500000000000000  0.5000000000000000  0.2500000000000000
  0.5000000000000000  0.5000000000000000  0.2500000000000000
  0.7500000000000000  0.5000000000000000  0.2500000000000000
  0.0000000000000000  0.7500000000000000  0.2500000000000000
  0.2500000000000000  0.7500000000000000  0.2500000000000000
  0.5000000000000000  0.7500000000000000  0.2500000000000000
  0.7500000000000000  0.7500000000000000  0.2500000000000000
  0.0000000000000000  0.0000000000000000  0.5000000000000000
  0.2500000000000000  0.0000000000000000  0.5000000000000000
  0.5000000000000000  0.0000000000000000  0.5000000000000000
  0.7500000000000000  0.0000000000000000  0.5000000000000000
  0.0000000000000000  0.2500000000000000  0.5000000000000000
  0.2500000000000000  0.2500000000000000  0.5000000000000000
  0.5000000000000000  0.2500000000000000  0.5000000000000000
  0.7500000000000000  0.2500000000000000  0.5000000000000000
  0.0000000000000000  0.5000000000000000  0.5000000000000000
  0.2500000000000000  0.5000000000000000  0.5000000000000000
  0.5000000000000000  0.5000000000000000  0.5000000000000000
  0.7500000000000000  0.5000000000000000  0.5000000000000000
  0.0000000000000000  0.7500000000000000  0.5000000000000000
  0.2500000000000000  0.7500000000000000  0.5000000000000000
  0.5000000000000000  0.7500000000000000  0.5000000000000000
  0.7500000000000000  0.7500000000000000  0.5000000000000000
  0.0000000000000000  0.0000000000000000  0.7500000000000000
  0.2500000000000000  0.0000000000000000  0.7500000000000000
  0.5000000000000000  0.0000000000000000  0.7500000000000000
  0.7500000000000000  0.0000000000000000  0.7500000000000000
  0.0000000000000000  0.2500000000000000  0.7500000000000000
  0.2500000000000000  0.2500000000000000  0.7500000000000000
  0.5000000000000000  0.2500000000000000  0.7500000000000000
  0.7500000000000000  0.2500000000000000  0.7500000000000000
  0.0000000000000000  0.5000000000000000  0.7500000000000000
  0.2500000000000000  0.5000000000000000  0.7500000000000000
  0.5000000000000000  0.5000000000000000  0.7500000000000000
  0.7500000000000000  0.5000000000000000  0.7500000000000000
  0.0000000000000000  0.7500000000000000  0.7500000000000000
  0.2500000000000000  0.7500000000000000  0.7500000000000000
  0.5000000000000000  0.7500000000000000  0.7500000000000000
  0.7500000000000000  0.7500000000000000  0.7500000000000000
  0.1250000000039462  0.1250000000039462  0.1250000000039462
  0.3750000000039462  0.1250000000039462  0.1250000000039462
  0.6250000000039462  0.1250000000039462  0.1250000000039462
  0.8750000000039462  0.1250000000039462  0.1250000000039462
  0.1250000000039462  0.3750000000039462  0.1250000000039462
  0.3750000000039462  0.3750000000039462  0.1250000000039462
  0.6250000000039462  0.3750000000039462  0.1250000000039462
  0.8750000000039462  0.3750000000039462  0.1250000000039462
  0.1250000000039462  0.6250000000039462  0.1250000000039462
  0.3750000000039462  0.6250000000039462  0.1250000000039462
  0.6250000000039462  0.6250000000039462  0.1250000000039462
  0.8750000000039462  0.6250000000039462  0.1250000000039462
  0.1250000000039462  0.8750000000039462  0.1250000000039462
  0.3750000000039462  0.8750000000039462  0.1250000000039462
  0.6250000000039462  0.8750000000039462  0.1250000000039462
  0.8750000000039462  0.8750000000039462  0.1250000000039462
  0.1250000000039462  0.1250000000039462  0.3750000000039462
  0.3750000000039462  0.1250000000039462  0.3750000000039462
  0.6250000000039462  0.1250000000039462  0.3750000000039462
  0.8750000000039462  0.1250000000039462  0.3750000000039462
  0.1250000000039462  0.3750000000039462  0.3750000000039462
  0.3750000000039462  0.3750000000039462  0.3750000000039462
  0.6250000000039462  0.3750000000039462  0.3750000000039462
  0.8750000000039462  0.3750000000039462  0.3750000000039462
  0.1250000000039462  0.6250000000039462  0.3750000000039462
  0.3750000000039462  0.6250000000039462  0.3750000000039462
  0.6250000000039462  0.6250000000039462  0.3750000000039462
  0.8750000000039462  0.6250000000039462  0.3750000000039462
  0.1250000000039462  0.8750000000039462  0.3750000000039462
  0.3750000000039462  0.8750000000039462  0.3750000000039462
  0.6250000000039462  0.8750000000039462  0.3750000000039462
  0.8750000000039462  0.8750000000039462  0.3750000000039462
  0.1250000000039462  0.1250000000039462  0.6250000000039462
  0.3750000000039462  0.1250000000039462  0.6250000000039462
  0.6250000000039462  0.1250000000039462  0.6250000000039462
  0.8750000000039462  0.1250000000039462  0.6250000000039462
  0.1250000000039462  0.3750000000039462  0.6250000000039462
  0.3750000000039462  0.3750000000039462  0.6250000000039462
  0.6250000000039462  0.3750000000039462  0.6250000000039462
  0.8750000000039462  0.3750000000039462  0.6250000000039462
  0.1250000000039462  0.6250000000039462  0.6250000000039462
  0.3750000000039462  0.6250000000039462  0.6250000000039462
  0.6250000000039462  0.6250000000039462  0.6250000000039462
  0.8750000000039462  0.6250000000039462  0.6250000000039462
  0.1250000000039462  0.8750000000039462  0.6250000000039462
  0.3750000000039462  0.8750000000039462  0.6250000000039462
  0.6250000000039462  0.8750000000039462  0.6250000000039462
  0.8750000000039462  0.8750000000039462  0.6250000000039462
  0.1250000000039462  0.1250000000039462  0.8750000000039462
  0.3750000000039462  0.1250000000039462  0.8750000000039462
  0.6250000000039462  0.1250000000039462  0.8750000000039462
  0.8750000000039462  0.1250000000039462  0.8750000000039462
  0.1250000000039462  0.3750000000039462  0.8750000000039462
  0.3750000000039462  0.3750000000039462  0.8750000000039462
  0.6250000000039462  0.3750000000039462  0.8750000000039462
  0.8750000000039462  0.3750000000039462  0.8750000000039462
  0.1250000000039462  0.6250000000039462  0.8750000000039462
  0.3750000000039462  0.6250000000039462  0.8750000000039462
  0.6250000000039462  0.6250000000039462  0.8750000000039462
  0.8750000000039462  0.6250000000039462  0.8750000000039462
  0.1250000000039462  0.8750000000039462  0.8750000000039462
  0.3750000000039462  0.8750000000039462  0.8750000000039462
  0.6250000000039462  0.8750000000039462  0.8750000000039462
  0.8750000000039462  0.8750000000039462  0.8750000000039462
